*SPEF "ieee 1481-1999"
*DESIGN "alu"
*DATE "11:11:11 Fri 11 11, 1111"
*VENDOR "OpenRCX"
*PROGRAM "Parallel Extraction"
*VERSION "1.0"
*DESIGN_FLOW "NAME_SCOPE LOCAL" "PIN_CAP NONE"
*DIVIDER /
*DELIMITER :
*BUS_DELIMITER []
*T_UNIT 1 NS
*C_UNIT 1 PF
*R_UNIT 1 OHM
*L_UNIT 1 HENRY

*NAME_MAP
*3 a[0]
*4 a[1]
*5 a[2]
*6 a[3]
*7 a[4]
*8 a[5]
*9 a[6]
*10 a[7]
*11 b[0]
*12 b[1]
*13 b[2]
*14 b[3]
*15 b[4]
*16 b[5]
*17 b[6]
*18 b[7]
*19 op[0]
*20 op[1]
*21 op[2]
*22 result[0]
*23 result[1]
*24 result[2]
*25 result[3]
*26 result[4]
*27 result[5]
*28 result[6]
*29 result[7]
*30 zero
*31 _000_
*32 _001_
*33 _002_
*34 _003_
*35 _004_
*36 _005_
*37 _006_
*38 _007_
*39 _008_
*40 _009_
*41 _010_
*42 _011_
*43 _012_
*44 _013_
*45 _014_
*46 _015_
*47 _016_
*48 _017_
*49 _018_
*50 _019_
*51 _020_
*52 _021_
*53 _022_
*54 _023_
*55 _024_
*56 _025_
*57 _026_
*58 _027_
*59 _028_
*60 _029_
*61 _030_
*62 _031_
*63 _032_
*64 _033_
*65 _034_
*66 _035_
*67 _036_
*68 _037_
*69 _038_
*70 _039_
*71 _040_
*72 _041_
*73 _042_
*74 _043_
*75 _044_
*76 _045_
*77 _046_
*78 _047_
*79 _048_
*80 _049_
*81 _050_
*82 _051_
*83 _052_
*84 _053_
*85 _054_
*86 _055_
*87 _056_
*88 _057_
*89 _058_
*90 _059_
*91 _060_
*92 _061_
*93 _062_
*94 _063_
*95 _064_
*96 _065_
*97 _066_
*98 _067_
*99 _068_
*100 _069_
*101 _070_
*102 _071_
*103 _072_
*104 _073_
*105 _074_
*106 _075_
*107 _076_
*108 _077_
*109 _078_
*110 _079_
*111 _080_
*112 _081_
*113 _082_
*114 _083_
*115 _084_
*116 _085_
*117 _086_
*118 _087_
*119 _088_
*120 _089_
*121 _090_
*122 _091_
*123 _092_
*124 _093_
*125 _094_
*126 _095_
*127 _096_
*128 _097_
*129 _098_
*130 _099_
*131 _100_
*132 _101_
*133 _102_
*134 _103_
*135 _104_
*136 _105_
*137 _106_
*138 _107_
*139 _108_
*140 _109_
*141 _110_
*142 _111_
*143 _112_
*144 _113_
*145 _114_
*146 net1
*147 net10
*148 net11
*149 net12
*150 net13
*151 net14
*152 net15
*153 net16
*154 net17
*155 net18
*156 net19
*157 net2
*158 net20
*159 net21
*160 net22
*161 net23
*162 net24
*163 net25
*164 net26
*165 net27
*166 net28
*167 net29
*168 net3
*169 net30
*170 net4
*171 net5
*172 net6
*173 net7
*174 net8
*175 net9
*176 FILLER_0_0_16
*177 FILLER_0_0_29
*178 FILLER_0_0_35
*179 FILLER_0_0_45
*180 FILLER_0_0_53
*181 FILLER_0_0_63
*182 FILLER_0_0_71
*183 FILLER_0_0_83
*184 FILLER_0_0_85
*185 FILLER_0_0_93
*186 FILLER_0_0_98
*187 FILLER_0_10_100
*188 FILLER_0_10_106
*189 FILLER_0_10_17
*190 FILLER_0_10_22
*191 FILLER_0_10_27
*192 FILLER_0_10_29
*193 FILLER_0_10_33
*194 FILLER_0_10_52
*195 FILLER_0_10_56
*196 FILLER_0_10_64
*197 FILLER_0_10_9
*198 FILLER_0_11_106
*199 FILLER_0_11_14
*200 FILLER_0_11_26
*201 FILLER_0_11_3
*202 FILLER_0_11_38
*203 FILLER_0_11_50
*204 FILLER_0_11_7
*205 FILLER_0_11_75
*206 FILLER_0_11_91
*207 FILLER_0_12_10
*208 FILLER_0_12_22
*209 FILLER_0_12_29
*210 FILLER_0_12_41
*211 FILLER_0_12_53
*212 FILLER_0_12_65
*213 FILLER_0_12_78
*214 FILLER_0_12_96
*215 FILLER_0_13_100
*216 FILLER_0_13_106
*217 FILLER_0_13_17
*218 FILLER_0_13_34
*219 FILLER_0_13_46
*220 FILLER_0_13_54
*221 FILLER_0_13_64
*222 FILLER_0_13_76
*223 FILLER_0_13_88
*224 FILLER_0_13_9
*225 FILLER_0_14_10
*226 FILLER_0_14_103
*227 FILLER_0_14_27
*228 FILLER_0_14_39
*229 FILLER_0_14_43
*230 FILLER_0_14_48
*231 FILLER_0_14_56
*232 FILLER_0_14_64
*233 FILLER_0_14_76
*234 FILLER_0_14_85
*235 FILLER_0_14_91
*236 FILLER_0_15_20
*237 FILLER_0_15_24
*238 FILLER_0_15_3
*239 FILLER_0_15_33
*240 FILLER_0_15_39
*241 FILLER_0_15_76
*242 FILLER_0_15_99
*243 FILLER_0_16_21
*244 FILLER_0_16_27
*245 FILLER_0_16_29
*246 FILLER_0_16_33
*247 FILLER_0_16_37
*248 FILLER_0_16_45
*249 FILLER_0_16_57
*250 FILLER_0_16_63
*251 FILLER_0_16_83
*252 FILLER_0_16_85
*253 FILLER_0_16_9
*254 FILLER_0_16_97
*255 FILLER_0_17_105
*256 FILLER_0_17_21
*257 FILLER_0_17_27
*258 FILLER_0_17_29
*259 FILLER_0_17_37
*260 FILLER_0_17_42
*261 FILLER_0_17_54
*262 FILLER_0_17_57
*263 FILLER_0_17_65
*264 FILLER_0_17_7
*265 FILLER_0_17_77
*266 FILLER_0_17_85
*267 FILLER_0_17_93
*268 FILLER_0_1_100
*269 FILLER_0_1_15
*270 FILLER_0_1_27
*271 FILLER_0_1_3
*272 FILLER_0_1_51
*273 FILLER_0_1_55
*274 FILLER_0_1_61
*275 FILLER_0_1_69
*276 FILLER_0_1_94
*277 FILLER_0_2_101
*278 FILLER_0_2_19
*279 FILLER_0_2_27
*280 FILLER_0_2_29
*281 FILLER_0_2_41
*282 FILLER_0_2_69
*283 FILLER_0_2_7
*284 FILLER_0_2_75
*285 FILLER_0_2_79
*286 FILLER_0_2_83
*287 FILLER_0_2_93
*288 FILLER_0_3_106
*289 FILLER_0_3_15
*290 FILLER_0_3_19
*291 FILLER_0_3_28
*292 FILLER_0_3_3
*293 FILLER_0_3_38
*294 FILLER_0_3_43
*295 FILLER_0_3_53
*296 FILLER_0_3_61
*297 FILLER_0_3_73
*298 FILLER_0_3_85
*299 FILLER_0_4_103
*300 FILLER_0_4_15
*301 FILLER_0_4_21
*302 FILLER_0_4_25
*303 FILLER_0_4_3
*304 FILLER_0_4_35
*305 FILLER_0_4_47
*306 FILLER_0_4_59
*307 FILLER_0_4_78
*308 FILLER_0_5_101
*309 FILLER_0_5_11
*310 FILLER_0_5_19
*311 FILLER_0_5_3
*312 FILLER_0_5_37
*313 FILLER_0_5_46
*314 FILLER_0_5_54
*315 FILLER_0_5_65
*316 FILLER_0_5_77
*317 FILLER_0_5_85
*318 FILLER_0_5_89
*319 FILLER_0_6_101
*320 FILLER_0_6_23
*321 FILLER_0_6_27
*322 FILLER_0_6_29
*323 FILLER_0_6_3
*324 FILLER_0_6_33
*325 FILLER_0_6_53
*326 FILLER_0_6_61
*327 FILLER_0_6_72
*328 FILLER_0_6_85
*329 FILLER_0_6_93
*330 FILLER_0_7_106
*331 FILLER_0_7_19
*332 FILLER_0_7_31
*333 FILLER_0_7_37
*334 FILLER_0_7_51
*335 FILLER_0_7_55
*336 FILLER_0_7_7
*337 FILLER_0_7_73
*338 FILLER_0_7_79
*339 FILLER_0_8_100
*340 FILLER_0_8_106
*341 FILLER_0_8_11
*342 FILLER_0_8_20
*343 FILLER_0_8_29
*344 FILLER_0_8_3
*345 FILLER_0_8_37
*346 FILLER_0_8_48
*347 FILLER_0_8_56
*348 FILLER_0_8_70
*349 FILLER_0_8_81
*350 FILLER_0_8_92
*351 FILLER_0_8_96
*352 FILLER_0_9_17
*353 FILLER_0_9_3
*354 FILLER_0_9_31
*355 FILLER_0_9_37
*356 FILLER_0_9_44
*357 FILLER_0_9_57
*358 FILLER_0_9_69
*359 FILLER_0_9_77
*360 FILLER_0_9_85
*361 FILLER_0_9_9
*362 FILLER_0_9_97
*363 PHY_0
*364 PHY_1
*365 PHY_10
*366 PHY_11
*367 PHY_12
*368 PHY_13
*369 PHY_14
*370 PHY_15
*371 PHY_16
*372 PHY_17
*373 PHY_18
*374 PHY_19
*375 PHY_2
*376 PHY_20
*377 PHY_21
*378 PHY_22
*379 PHY_23
*380 PHY_24
*381 PHY_25
*382 PHY_26
*383 PHY_27
*384 PHY_28
*385 PHY_29
*386 PHY_3
*387 PHY_30
*388 PHY_31
*389 PHY_32
*390 PHY_33
*391 PHY_34
*392 PHY_35
*393 PHY_4
*394 PHY_5
*395 PHY_6
*396 PHY_7
*397 PHY_8
*398 PHY_9
*399 TAP_36
*400 TAP_37
*401 TAP_38
*402 TAP_39
*403 TAP_40
*404 TAP_41
*405 TAP_42
*406 TAP_43
*407 TAP_44
*408 TAP_45
*409 TAP_46
*410 TAP_47
*411 TAP_48
*412 TAP_49
*413 TAP_50
*414 TAP_51
*415 TAP_52
*416 TAP_53
*417 TAP_54
*418 TAP_55
*419 TAP_56
*420 TAP_57
*421 TAP_58
*422 TAP_59
*423 TAP_60
*424 TAP_61
*425 TAP_62
*426 TAP_63
*427 TAP_64
*428 TAP_65
*429 _115_
*430 _116_
*431 _117_
*432 _118_
*433 _119_
*434 _120_
*435 _121_
*436 _122_
*437 _123_
*438 _124_
*439 _125_
*440 _126_
*441 _127_
*442 _128_
*443 _129_
*444 _130_
*445 _131_
*446 _132_
*447 _133_
*448 _134_
*449 _135_
*450 _136_
*451 _137_
*452 _138_
*453 _139_
*454 _140_
*455 _141_
*456 _142_
*457 _143_
*458 _144_
*459 _145_
*460 _146_
*461 _147_
*462 _148_
*463 _149_
*464 _150_
*465 _151_
*466 _152_
*467 _153_
*468 _154_
*469 _155_
*470 _156_
*471 _157_
*472 _158_
*473 _159_
*474 _160_
*475 _161_
*476 _162_
*477 _163_
*478 _164_
*479 _165_
*480 _166_
*481 _167_
*482 _168_
*483 _169_
*484 _170_
*485 _171_
*486 _172_
*487 _173_
*488 _174_
*489 _175_
*490 _176_
*491 _177_
*492 _178_
*493 _179_
*494 _180_
*495 _181_
*496 _182_
*497 _183_
*498 _184_
*499 _185_
*500 _186_
*501 _187_
*502 _188_
*503 _189_
*504 _190_
*505 _191_
*506 _192_
*507 _193_
*508 _194_
*509 _195_
*510 _196_
*511 _197_
*512 _198_
*513 _199_
*514 _200_
*515 _201_
*516 _202_
*517 _203_
*518 _204_
*519 _205_
*520 _206_
*521 _207_
*522 _208_
*523 _209_
*524 _210_
*525 _211_
*526 _212_
*527 _213_
*528 _214_
*529 _215_
*530 _216_
*531 _217_
*532 _218_
*533 _219_
*534 _220_
*535 _221_
*536 _222_
*537 _223_
*538 _224_
*539 _225_
*540 _226_
*541 _227_
*542 _228_
*543 _229_
*544 _230_
*545 _231_
*546 _232_
*547 _233_
*548 _234_
*549 _235_
*550 _236_
*551 _237_
*552 _238_
*553 input1
*554 input10
*555 input11
*556 input12
*557 input13
*558 input14
*559 input15
*560 input16
*561 input17
*562 input18
*563 input19
*564 input2
*565 input3
*566 input4
*567 input5
*568 input6
*569 input7
*570 input8
*571 input9
*572 max_cap30
*573 output20
*574 output21
*575 output22
*576 output23
*577 output24
*578 output25
*579 output26
*580 output27
*581 output28
*582 wire29

*PORTS
a[0] I
a[1] I
a[2] I
a[3] I
a[4] I
a[5] I
a[6] I
a[7] I
b[0] I
b[1] I
b[2] I
b[3] I
b[4] I
b[5] I
b[6] I
b[7] I
op[0] I
op[1] I
op[2] I
result[0] O
result[1] O
result[2] O
result[3] O
result[4] O
result[5] O
result[6] O
result[7] O
zero O

*D_NET *3 0.0010847
*CONN
*P a[0] I
*I *553:A I *D sky130_fd_sc_hd__clkbuf_2
*CAP
1 a[0] 0.000405204
2 *553:A 0.000405204
3 *553:A *560:A 0.000274294
*RES
1 a[0] *553:A 24.2982 
*END

*D_NET *4 0.0021323
*CONN
*P a[1] I
*I *564:A I *D sky130_fd_sc_hd__clkbuf_2
*CAP
1 a[1] 0.00106615
2 *564:A 0.00106615
*RES
1 a[1] *564:A 34.3714 
*END

*D_NET *5 0.00110347
*CONN
*P a[2] I
*I *565:A I *D sky130_fd_sc_hd__buf_2
*CAP
1 a[2] 0.000512006
2 *565:A 0.000512006
3 *565:A result[7] 4.64488e-06
4 *565:A *558:A 7.48091e-05
*RES
1 a[2] *565:A 23.4609 
*END

*D_NET *6 0.000469287
*CONN
*P a[3] I
*I *566:A I *D sky130_fd_sc_hd__buf_2
*CAP
1 a[3] 0.000234643
2 *566:A 0.000234643
*RES
1 a[3] *566:A 19.9411 
*END

*D_NET *7 0.00101456
*CONN
*P a[4] I
*I *567:A I *D sky130_fd_sc_hd__clkbuf_2
*CAP
1 a[4] 0.000507278
2 *567:A 0.000507278
*RES
1 a[4] *567:A 24.0143 
*END

*D_NET *8 0.00100288
*CONN
*P a[5] I
*I *568:A I *D sky130_fd_sc_hd__clkbuf_2
*CAP
1 a[5] 0.00050144
2 *568:A 0.00050144
*RES
1 a[5] *568:A 23.8893 
*END

*D_NET *9 0.00067311
*CONN
*P a[6] I
*I *569:A I *D sky130_fd_sc_hd__buf_2
*CAP
1 a[6] 0.000313976
2 *569:A 0.000313976
3 *569:A *174:22 4.51578e-05
*RES
1 a[6] *569:A 21.1203 
*END

*D_NET *10 0.00116525
*CONN
*P a[7] I
*I *570:A I *D sky130_fd_sc_hd__clkbuf_2
*CAP
1 a[7] 0.000532632
2 *570:A 0.000532632
3 *570:A result[2] 0
4 *570:A *575:A 9.99853e-05
*RES
1 a[7] *570:A 24.425 
*END

*D_NET *11 0.000817553
*CONN
*P b[0] I
*I *571:A I *D sky130_fd_sc_hd__buf_2
*CAP
1 b[0] 0.000408777
2 *571:A 0.000408777
*RES
1 b[0] *571:A 21.9607 
*END

*D_NET *12 0.000464416
*CONN
*P b[1] I
*I *554:A I *D sky130_fd_sc_hd__dlymetal6s2s_1
*CAP
1 b[1] 0.000215208
2 *554:A 0.000215208
3 *554:A *147:66 1.28585e-05
4 *554:A *174:22 2.11419e-05
*RES
1 b[1] *554:A 18.1229 
*END

*D_NET *13 0.00100288
*CONN
*P b[2] I
*I *555:A I *D sky130_fd_sc_hd__clkbuf_2
*CAP
1 b[2] 0.00050144
2 *555:A 0.00050144
*RES
1 b[2] *555:A 23.8893 
*END

*D_NET *14 0.00137114
*CONN
*P b[3] I
*I *556:A I *D sky130_fd_sc_hd__clkbuf_2
*CAP
1 b[3] 0.000569369
2 *556:A 0.000569369
3 *556:A *559:A 0.000232399
*RES
1 b[3] *556:A 27.1203 
*END

*D_NET *15 0.000951776
*CONN
*P b[4] I
*I *557:A I *D sky130_fd_sc_hd__clkbuf_2
*CAP
1 b[4] 0.00037824
2 *557:A 0.00037824
3 *557:A *525:B 9.37401e-05
4 *557:A *37:12 0.000101555
*RES
1 b[4] *557:A 21.5342 
*END

*D_NET *16 0.00141113
*CONN
*P b[5] I
*I *558:A I *D sky130_fd_sc_hd__clkbuf_2
*CAP
1 b[5] 0.00066816
2 *558:A 0.00066816
3 *558:A result[7] 0
4 *565:A *558:A 7.48091e-05
*RES
1 b[5] *558:A 26.6393 
*END

*D_NET *17 0.00157403
*CONN
*P b[6] I
*I *559:A I *D sky130_fd_sc_hd__clkbuf_2
*CAP
1 b[6] 0.000642668
2 *559:A 0.000642668
3 *559:A *563:A 0
4 *559:A *149:14 5.62995e-05
5 *556:A *559:A 0.000232399
*RES
1 b[6] *559:A 27.1929 
*END

*D_NET *18 0.00181729
*CONN
*P b[7] I
*I *560:A I *D sky130_fd_sc_hd__clkbuf_1
*CAP
1 b[7] 0.000742925
2 *560:A 0.000742925
3 *560:A *146:14 5.71472e-05
4 *553:A *560:A 0.000274294
*RES
1 b[7] *560:A 29.2286 
*END

*D_NET *19 0.000813598
*CONN
*P op[0] I
*I *561:A I *D sky130_fd_sc_hd__buf_4
*CAP
1 op[0] 0.000406799
2 *561:A 0.000406799
*RES
1 op[0] *561:A 21.9607 
*END

*D_NET *20 0.000841373
*CONN
*P op[1] I
*I *562:A I *D sky130_fd_sc_hd__buf_2
*CAP
1 op[1] 0.000416369
2 *562:A 0.000416369
3 *562:A *80:14 0
4 *562:A *154:19 2.8266e-06
5 *562:A *155:25 5.80706e-06
*RES
1 op[1] *562:A 21.9607 
*END

*D_NET *21 0.000565282
*CONN
*P op[2] I
*I *563:A I *D sky130_fd_sc_hd__buf_4
*CAP
1 op[2] 0.000282641
2 *563:A 0.000282641
3 *563:A *152:8 0
4 *559:A *563:A 0
*RES
1 op[2] *563:A 20.5132 
*END

*D_NET *22 0.0012036
*CONN
*P result[0] O
*I *573:X O *D sky130_fd_sc_hd__clkbuf_4
*CAP
1 result[0] 0.000486032
2 *573:X 0.000486032
3 result[0] *80:52 8.50152e-05
4 result[0] *146:14 0.000146523
*RES
1 *573:X result[0] 23.5857 
*END

*D_NET *23 0.000591445
*CONN
*P result[1] O
*I *574:X O *D sky130_fd_sc_hd__clkbuf_4
*CAP
1 result[1] 0.000273354
2 *574:X 0.000273354
3 result[1] *174:22 4.47378e-05
*RES
1 *574:X result[1] 18.4264 
*END

*D_NET *24 0.0011157
*CONN
*P result[2] O
*I *575:X O *D sky130_fd_sc_hd__clkbuf_4
*CAP
1 result[2] 0.000555028
2 *575:X 0.000555028
3 result[2] *174:8 5.64835e-06
4 *570:A result[2] 0
*RES
1 *575:X result[2] 23.6598 
*END

*D_NET *25 0.000487379
*CONN
*P result[3] O
*I *576:X O *D sky130_fd_sc_hd__clkbuf_4
*CAP
1 result[3] 0.00024369
2 *576:X 0.00024369
*RES
1 *576:X result[3] 19.9411 
*END

*D_NET *26 0.00125441
*CONN
*P result[4] O
*I *577:X O *D sky130_fd_sc_hd__clkbuf_4
*CAP
1 result[4] 0.000618511
2 *577:X 0.000618511
3 result[4] *168:14 1.73845e-05
*RES
1 *577:X result[4] 24.9429 
*END

*D_NET *27 0.00101678
*CONN
*P result[5] O
*I *578:X O *D sky130_fd_sc_hd__clkbuf_4
*CAP
1 result[5] 0.000506159
2 *578:X 0.000506159
3 result[5] *432:A1 4.46186e-06
*RES
1 *578:X result[5] 25.1214 
*END

*D_NET *28 0.000577282
*CONN
*P result[6] O
*I *579:X O *D sky130_fd_sc_hd__clkbuf_4
*CAP
1 result[6] 0.000288641
2 *579:X 0.000288641
3 result[6] *150:8 0
*RES
1 *579:X result[6] 20.8518 
*END

*D_NET *29 0.0016639
*CONN
*P result[7] O
*I *580:X O *D sky130_fd_sc_hd__clkbuf_4
*CAP
1 result[7] 0.000790161
2 *580:X 0.000790161
3 result[7] *151:10 7.89362e-05
4 *558:A result[7] 0
5 *565:A result[7] 4.64488e-06
*RES
1 *580:X result[7] 28.1097 
*END

*D_NET *30 0.000811488
*CONN
*P zero O
*I *581:X O *D sky130_fd_sc_hd__buf_6
*CAP
1 zero 0.000278423
2 *581:X 0.000278423
3 zero *147:66 0.000167209
4 zero *174:22 8.74324e-05
*RES
1 *581:X zero 20.0163 
*END

*D_NET *31 0.000898271
*CONN
*I *501:A I *D sky130_fd_sc_hd__inv_2
*I *500:Y O *D sky130_fd_sc_hd__xnor2_1
*CAP
1 *501:A 0.000270801
2 *500:Y 0.000270801
3 *501:A *500:A 1.24368e-05
4 *501:A *143:6 9.84729e-05
5 *501:A *171:24 0.00024576
*RES
1 *500:Y *501:A 24.9214 
*END

*D_NET *32 0.00118246
*CONN
*I *504:A I *D sky130_fd_sc_hd__xnor2_1
*I *513:B1 I *D sky130_fd_sc_hd__o211ai_2
*I *501:Y O *D sky130_fd_sc_hd__inv_2
*CAP
1 *504:A 0
2 *513:B1 0.000132908
3 *501:Y 0.000170273
4 *32:6 0.000303181
5 *513:B1 *504:B 0.000172877
6 *513:B1 *513:C1 3.29284e-05
7 *513:B1 *43:8 5.49544e-05
8 *32:6 *171:24 0.00031534
*RES
1 *501:Y *32:6 13.1214 
2 *32:6 *513:B1 21.4964 
3 *32:6 *504:A 9.3 
*END

*D_NET *33 0.00071262
*CONN
*I *513:A2 I *D sky130_fd_sc_hd__o211ai_2
*I *503:A2 I *D sky130_fd_sc_hd__o21ai_1
*I *502:X O *D sky130_fd_sc_hd__a21o_1
*CAP
1 *513:A2 0
2 *503:A2 5.29707e-05
3 *502:X 0.000129235
4 *33:8 0.000182205
5 *503:A2 *505:B1 0.000147862
6 *503:A2 *172:18 0.00015018
7 *33:8 *513:A1 3.49456e-06
8 *33:8 *126:6 2.81855e-05
9 *33:8 *129:14 1.84865e-05
*RES
1 *502:X *33:8 11.4964 
2 *33:8 *503:A2 20.2464 
3 *33:8 *513:A2 9.3 
*END

*D_NET *34 0.00128132
*CONN
*I *504:B I *D sky130_fd_sc_hd__xnor2_1
*I *503:Y O *D sky130_fd_sc_hd__o21ai_1
*CAP
1 *504:B 0.000355798
2 *503:Y 0.000355798
3 *504:B *503:B1 1.9774e-05
4 *504:B *171:24 0.00024938
5 *504:B *172:18 0.000127687
6 *513:B1 *504:B 0.000172877
*RES
1 *503:Y *504:B 34.8143 
*END

*D_NET *35 0.001988
*CONN
*I *505:B1 I *D sky130_fd_sc_hd__o32a_1
*I *504:Y O *D sky130_fd_sc_hd__xnor2_1
*CAP
1 *505:B1 0.000784059
2 *504:Y 0.000784059
3 *505:B1 *503:B1 0.000121248
4 *505:B1 *171:24 3.14963e-05
5 *505:B1 *172:18 0.000119272
6 *503:A2 *505:B1 0.000147862
*RES
1 *504:Y *505:B1 42.1893 
*END

*D_NET *36 0.0015142
*CONN
*I *523:A1 I *D sky130_fd_sc_hd__o21a_1
*I *510:A I *D sky130_fd_sc_hd__and2_1
*I *509:A I *D sky130_fd_sc_hd__nor2_1
*I *506:Y O *D sky130_fd_sc_hd__inv_2
*CAP
1 *523:A1 1.2683e-05
2 *510:A 0
3 *509:A 3.14505e-05
4 *506:Y 0.000366431
5 *36:10 0.000151788
6 *36:6 0.000499452
7 *509:A *38:17 0.00010096
8 *523:A1 *510:B 3.99614e-06
9 *36:6 *511:A 2.65105e-05
10 *36:6 *511:B 5.23057e-05
11 *36:6 *515:A 0.00010096
12 *36:6 *522:A2 3.67252e-05
13 *36:6 *523:A2 3.18676e-05
14 *36:10 *510:B 1.04232e-05
15 *36:10 *523:A2 6.71854e-05
16 *36:10 *38:17 2.14658e-05
*RES
1 *506:Y *36:6 15.9964 
2 *36:6 *36:10 2.19643 
3 *36:10 *509:A 10.2464 
4 *36:10 *510:A 9.3 
5 *36:6 *523:A1 9.72857 
*END

*D_NET *37 0.00521907
*CONN
*I *508:B I *D sky130_fd_sc_hd__xor2_1
*I *542:A3 I *D sky130_fd_sc_hd__o31a_1
*I *524:B1 I *D sky130_fd_sc_hd__a21oi_1
*I *507:X O *D sky130_fd_sc_hd__a21o_1
*CAP
1 *508:B 0.000242122
2 *542:A3 0.000340816
3 *524:B1 5.08943e-05
4 *507:X 8.08614e-05
5 *37:12 0.000702196
6 *37:8 0.00063347
7 *508:B *499:A 0.000119618
8 *508:B *145:8 9.11365e-06
9 *508:B *151:10 3.34366e-05
10 *508:B *151:23 0.000512615
11 *524:B1 *151:27 3.50746e-05
12 *542:A3 *524:A2 5.66708e-05
13 *542:A3 *525:B 3.50746e-05
14 *542:A3 *543:B 0.000184503
15 *542:A3 *94:27 0.000151797
16 *542:A3 *151:27 2.18844e-05
17 *37:8 *507:A1 3.14163e-05
18 *37:12 *499:A 6.0038e-05
19 *37:12 *525:B 3.45899e-05
20 *37:12 *150:8 0.000564496
21 *37:12 *150:45 0.000175526
22 *37:12 *151:23 0.0010413
23 *557:A *37:12 0.000101555
*RES
1 *507:X *37:8 14.7464 
2 *37:8 *37:12 17.6786 
3 *37:12 *524:B1 10.2643 
4 *37:12 *542:A3 15.9071 
5 *37:8 *508:B 20.6036 
*END

*D_NET *38 0.00100487
*CONN
*I *523:A2 I *D sky130_fd_sc_hd__o21a_1
*I *510:B I *D sky130_fd_sc_hd__and2_1
*I *509:B I *D sky130_fd_sc_hd__nor2_1
*I *508:X O *D sky130_fd_sc_hd__xor2_1
*CAP
1 *523:A2 4.34394e-05
2 *510:B 1.02833e-05
3 *509:B 0
4 *508:X 0.000130212
5 *38:17 0.000119274
6 *38:8 0.000195763
7 *523:A2 *511:A 4.43256e-05
8 *523:A2 *511:B 9.90431e-05
9 *38:17 *511:A 0.000126629
10 *509:A *38:17 0.00010096
11 *523:A1 *510:B 3.99614e-06
12 *36:6 *523:A2 3.18676e-05
13 *36:10 *510:B 1.04232e-05
14 *36:10 *523:A2 6.71854e-05
15 *36:10 *38:17 2.14658e-05
*RES
1 *508:X *38:8 11.4964 
2 *38:8 *509:B 9.3 
3 *38:8 *38:17 2.60714 
4 *38:17 *510:B 9.72857 
5 *38:17 *523:A2 11.0679 
*END

*D_NET *39 0.00153771
*CONN
*I *511:A I *D sky130_fd_sc_hd__or2_1
*I *509:Y O *D sky130_fd_sc_hd__nor2_1
*CAP
1 *511:A 0.000501089
2 *509:Y 0.000501089
3 *511:A *511:B 0.000300474
4 *511:A *515:A 3.75959e-05
5 *523:A2 *511:A 4.43256e-05
6 *36:6 *511:A 2.65105e-05
7 *38:17 *511:A 0.000126629
*RES
1 *509:Y *511:A 35.4214 
*END

*D_NET *40 0.00162801
*CONN
*I *511:B I *D sky130_fd_sc_hd__or2_1
*I *528:B1 I *D sky130_fd_sc_hd__a21o_1
*I *527:C1 I *D sky130_fd_sc_hd__a211oi_2
*I *510:X O *D sky130_fd_sc_hd__and2_1
*CAP
1 *511:B 0.000151137
2 *528:B1 0
3 *527:C1 6.85845e-05
4 *510:X 0
5 *40:10 0.000198869
6 *40:4 0.000281421
7 *511:B *523:B1 9.82903e-05
8 *511:B *43:20 0
9 *527:C1 *527:A2 0
10 *527:C1 *528:A1 1.74352e-05
11 *527:C1 *528:A2 5.71472e-05
12 *527:C1 *576:A 0.000130672
13 *527:C1 *52:12 0
14 *527:C1 *56:10 5.52302e-05
15 *40:10 *523:B1 0
16 *40:10 *580:A 0.000117398
17 *40:10 *52:12 0
18 *511:A *511:B 0.000300474
19 *523:A2 *511:B 9.90431e-05
20 *36:6 *511:B 5.23057e-05
*RES
1 *510:X *40:4 9.3 
2 *40:4 *40:10 11.8571 
3 *40:10 *527:C1 11.4964 
4 *40:10 *528:B1 9.3 
5 *40:4 *511:B 22.7286 
*END

*D_NET *41 0.000479283
*CONN
*I *515:A I *D sky130_fd_sc_hd__xnor2_1
*I *511:X O *D sky130_fd_sc_hd__or2_1
*CAP
1 *515:A 0.000105296
2 *511:X 0.000105296
3 *515:A *515:B 0.000130135
4 *511:A *515:A 3.75959e-05
5 *36:6 *515:A 0.00010096
*RES
1 *511:X *515:A 30.6179 
*END

*D_NET *42 0.00112574
*CONN
*I *514:A I *D sky130_fd_sc_hd__nand2_1
*I *523:B1 I *D sky130_fd_sc_hd__o21a_1
*I *512:X O *D sky130_fd_sc_hd__or2_1
*CAP
1 *514:A 0.000223675
2 *523:B1 0.000102576
3 *512:X 0.00018474
4 *42:6 0.000510992
5 *514:A *43:8 5.46383e-06
6 *523:B1 *580:A 0
7 *523:B1 *43:20 0
8 *511:B *523:B1 9.82903e-05
9 *40:10 *523:B1 0
*RES
1 *512:X *42:6 11.4786 
2 *42:6 *523:B1 20.2464 
3 *42:6 *514:A 13.05 
*END

*D_NET *43 0.00223983
*CONN
*I *514:B I *D sky130_fd_sc_hd__nand2_1
*I *528:A1 I *D sky130_fd_sc_hd__a21o_1
*I *527:A1 I *D sky130_fd_sc_hd__a211oi_2
*I *513:Y O *D sky130_fd_sc_hd__o211ai_2
*CAP
1 *514:B 0
2 *528:A1 0.000272637
3 *527:A1 0
4 *513:Y 0.000304206
5 *43:20 0.000626943
6 *43:8 0.000658513
7 *528:A1 *527:A2 8.28631e-05
8 *528:A1 *528:A2 8.07313e-05
9 *528:A1 *52:12 0
10 *43:20 *515:B 7.89362e-05
11 *43:20 *527:A2 5.71472e-05
12 *43:20 *52:12 0
13 *511:B *43:20 0
14 *513:B1 *43:8 5.49544e-05
15 *514:A *43:8 5.46383e-06
16 *523:B1 *43:20 0
17 *527:C1 *528:A1 1.74352e-05
*RES
1 *513:Y *43:8 13.55 
2 *43:8 *43:20 15.1786 
3 *43:20 *527:A1 9.3 
4 *43:20 *528:A1 13.4429 
5 *43:8 *514:B 9.3 
*END

*D_NET *44 0.000367158
*CONN
*I *515:B I *D sky130_fd_sc_hd__xnor2_1
*I *514:Y O *D sky130_fd_sc_hd__nand2_1
*CAP
1 *515:B 7.90436e-05
2 *514:Y 7.90436e-05
3 *515:A *515:B 0.000130135
4 *43:20 *515:B 7.89362e-05
*RES
1 *514:Y *515:B 29.9036 
*END

*D_NET *45 0.00257659
*CONN
*I *522:A2 I *D sky130_fd_sc_hd__o21a_1
*I *515:Y O *D sky130_fd_sc_hd__xnor2_1
*CAP
1 *522:A2 0.000646928
2 *515:Y 0.000646928
3 *522:A2 *492:B1 0.000167609
4 *522:A2 *506:A 6.05161e-06
5 *522:A2 *522:B1 7.83659e-05
6 *522:A2 *545:B1 5.33005e-05
7 *522:A2 *171:24 2.49484e-05
8 *522:A2 *171:36 2.15859e-05
9 *522:A2 *172:39 0.000894144
10 *36:6 *522:A2 3.67252e-05
*RES
1 *515:Y *522:A2 42.975 
*END

*D_NET *46 0.0010385
*CONN
*I *520:A2 I *D sky130_fd_sc_hd__a311o_1
*I *518:A2_N I *D sky130_fd_sc_hd__a2bb2o_1
*I *516:Y O *D sky130_fd_sc_hd__nand2_1
*CAP
1 *520:A2 0.000139688
2 *518:A2_N 1.84677e-05
3 *516:Y 9.29918e-05
4 *46:6 0.000251147
5 *518:A2_N *518:A1_N 1.02301e-05
6 *518:A2_N *518:B2 3.41517e-06
7 *520:A2 *518:B1 5.49489e-05
8 *520:A2 *518:B2 2.36643e-05
9 *520:A2 *520:A3 9.58689e-05
10 *520:A2 *521:B1 7.57394e-05
11 *520:A2 *521:C1 3.08664e-05
12 *520:A2 *105:14 5.51729e-05
13 *46:6 *516:A 9.83388e-05
14 *46:6 *521:B1 7.21478e-05
15 *46:6 *105:14 1.58163e-05
*RES
1 *516:Y *46:6 11.4786 
2 *46:6 *518:A2_N 9.72857 
3 *46:6 *520:A2 13.1393 
*END

*D_NET *47 0.000637452
*CONN
*I *520:A3 I *D sky130_fd_sc_hd__a311o_1
*I *518:B1 I *D sky130_fd_sc_hd__a2bb2o_1
*I *517:X O *D sky130_fd_sc_hd__or2_1
*CAP
1 *520:A3 2.44363e-05
2 *518:B1 1.21804e-05
3 *517:X 8.69298e-05
4 *47:10 0.000123547
5 *518:B1 *518:B2 5.49489e-05
6 *520:A3 *518:B2 4.08637e-05
7 *520:A3 *105:14 2.24804e-05
8 *47:10 *87:27 9.91224e-05
9 *47:10 *87:44 2.21254e-05
10 *520:A2 *518:B1 5.49489e-05
11 *520:A2 *520:A3 9.58689e-05
*RES
1 *517:X *47:10 19.9429 
2 *47:10 *518:B1 9.83571 
3 *47:10 *520:A3 10.2464 
*END

*D_NET *48 0.000903921
*CONN
*I *521:B1 I *D sky130_fd_sc_hd__a211o_1
*I *518:X O *D sky130_fd_sc_hd__a2bb2o_1
*CAP
1 *521:B1 0.000292422
2 *518:X 0.000292422
3 *521:B1 *521:C1 0.000145621
4 *521:B1 *109:31 2.55698e-05
5 *520:A2 *521:B1 7.57394e-05
6 *46:6 *521:B1 7.21478e-05
*RES
1 *518:X *521:B1 32.1357 
*END

*D_NET *49 0.000904823
*CONN
*I *520:B1 I *D sky130_fd_sc_hd__a311o_1
*I *519:X O *D sky130_fd_sc_hd__a2bb2o_1
*CAP
1 *520:B1 0.000287906
2 *519:X 0.000287906
3 *520:B1 *494:A3 0.000121897
4 *520:B1 *84:16 0.0001802
5 *520:B1 *172:61 2.6913e-05
*RES
1 *519:X *520:B1 31.8321 
*END

*D_NET *50 0.000490441
*CONN
*I *521:C1 I *D sky130_fd_sc_hd__a211o_1
*I *520:X O *D sky130_fd_sc_hd__a311o_1
*CAP
1 *521:C1 0.000102305
2 *520:X 0.000102305
3 *521:C1 *495:B 7.92444e-05
4 *521:C1 *87:44 3.00989e-05
5 *520:A2 *521:C1 3.08664e-05
6 *521:B1 *521:C1 0.000145621
*RES
1 *520:X *521:C1 30.0821 
*END

*D_NET *51 0.00116233
*CONN
*I *522:B1 I *D sky130_fd_sc_hd__o21a_1
*I *521:X O *D sky130_fd_sc_hd__a211o_1
*CAP
1 *522:B1 0.000224299
2 *521:X 0.000224299
3 *522:B1 *496:B1 0.000126658
4 *522:B1 *496:C1 0.000121897
5 *522:B1 *522:A1 9.58181e-05
6 *522:B1 *549:B1 0
7 *522:B1 *552:C 9.58181e-05
8 *522:B1 *172:39 0.00019517
9 *522:A2 *522:B1 7.83659e-05
*RES
1 *521:X *522:B1 33.4571 
*END

*D_NET *52 0.000925094
*CONN
*I *527:A2 I *D sky130_fd_sc_hd__a211oi_2
*I *528:A2 I *D sky130_fd_sc_hd__a21o_1
*I *523:X O *D sky130_fd_sc_hd__o21a_1
*CAP
1 *527:A2 8.92782e-05
2 *528:A2 2.65602e-05
3 *523:X 0.000107035
4 *52:12 0.000222873
5 *527:A2 *576:A 0.000163054
6 *528:A2 *576:A 1.39726e-05
7 *528:A2 *56:10 2.44318e-05
8 *527:C1 *527:A2 0
9 *527:C1 *528:A2 5.71472e-05
10 *527:C1 *52:12 0
11 *528:A1 *527:A2 8.28631e-05
12 *528:A1 *528:A2 8.07313e-05
13 *528:A1 *52:12 0
14 *40:10 *52:12 0
15 *43:20 *527:A2 5.71472e-05
16 *43:20 *52:12 0
*RES
1 *523:X *52:12 20.0679 
2 *52:12 *528:A2 10.6571 
3 *52:12 *527:A2 12.8536 
*END

*D_NET *53 0.000529723
*CONN
*I *525:B I *D sky130_fd_sc_hd__xnor2_1
*I *524:Y O *D sky130_fd_sc_hd__a21oi_1
*CAP
1 *525:B 0.000183159
2 *524:Y 0.000183159
3 *542:A3 *525:B 3.50746e-05
4 *557:A *525:B 9.37401e-05
5 *37:12 *525:B 3.45899e-05
*RES
1 *524:Y *525:B 31.1893 
*END

*D_NET *54 0.00149991
*CONN
*I *526:B I *D sky130_fd_sc_hd__xor2_1
*I *538:A_N I *D sky130_fd_sc_hd__and2b_1
*I *525:Y O *D sky130_fd_sc_hd__xnor2_1
*CAP
1 *526:B 0.000113603
2 *538:A_N 0.000120185
3 *525:Y 0.000223322
4 *54:8 0.00045711
5 *526:B *526:A 8.15939e-05
6 *526:B *94:40 2.62337e-05
7 *526:B *151:23 8.25578e-05
8 *538:A_N *526:A 3.06035e-05
9 *54:8 *543:A 0.00012342
10 *54:8 *94:40 0.000117815
11 *54:8 *151:23 0.000123471
*RES
1 *525:Y *54:8 19.9964 
2 *54:8 *538:A_N 15.5679 
3 *54:8 *526:B 17.1929 
*END

*D_NET *55 0.00263459
*CONN
*I *527:B1 I *D sky130_fd_sc_hd__a211oi_2
*I *529:A1 I *D sky130_fd_sc_hd__a21o_1
*I *526:X O *D sky130_fd_sc_hd__xor2_1
*CAP
1 *527:B1 0.000400023
2 *529:A1 0
3 *526:X 0.000363693
4 *55:16 0.000763716
5 *527:B1 *529:B1 1.58163e-05
6 *527:B1 *580:A 0
7 *527:B1 *56:10 9.79121e-05
8 *527:B1 *79:43 3.67257e-05
9 *55:16 *544:A1 0.000221326
10 *55:16 *544:B1 0
11 *55:16 *545:A3 0.000186662
12 *55:16 *580:A 0.000409896
13 *55:16 *56:10 0.000103032
14 *55:16 *56:12 3.57844e-05
15 *55:16 *71:8 0
*RES
1 *526:X *55:16 27.2286 
2 *55:16 *529:A1 9.3 
3 *55:16 *527:B1 24.55 
*END

*D_NET *56 0.00208014
*CONN
*I *544:A2 I *D sky130_fd_sc_hd__o21ai_1
*I *537:A1 I *D sky130_fd_sc_hd__o21ai_1
*I *545:A2 I *D sky130_fd_sc_hd__o31a_1
*I *527:Y O *D sky130_fd_sc_hd__a211oi_2
*CAP
1 *544:A2 0.00010375
2 *537:A1 0
3 *545:A2 5.97766e-05
4 *527:Y 0.000248083
5 *56:12 8.68023e-05
6 *56:10 0.000378859
7 *544:A2 *150:14 0.000137983
8 *545:A2 *544:A1 0.000170654
9 *545:A2 *548:C1 0.000172375
10 *56:10 *548:C1 0.000126439
11 *56:10 *576:A 9.90431e-05
12 *56:10 *580:A 9.9201e-05
13 *56:12 *548:C1 8.07879e-05
14 *527:B1 *56:10 9.79121e-05
15 *527:C1 *56:10 5.52302e-05
16 *528:A2 *56:10 2.44318e-05
17 *55:16 *56:10 0.000103032
18 *55:16 *56:12 3.57844e-05
*RES
1 *527:Y *56:10 20.9429 
2 *56:10 *56:12 1.03571 
3 *56:12 *545:A2 16.05 
4 *56:12 *537:A1 13.8 
5 *56:10 *544:A2 15.1571 
*END

*D_NET *57 0.000659385
*CONN
*I *529:A2 I *D sky130_fd_sc_hd__a21o_1
*I *528:X O *D sky130_fd_sc_hd__a21o_1
*CAP
1 *529:A2 0.00025901
2 *528:X 0.00025901
3 *529:A2 *507:A1 0
4 *529:A2 *507:B1 0
5 *529:A2 *529:B1 0
6 *529:A2 *580:A 0.000141366
7 *529:A2 *94:55 0
8 *529:A2 *145:8 0
*RES
1 *528:X *529:A2 32.7429 
*END

*D_NET *58 0.000312542
*CONN
*I *537:A2 I *D sky130_fd_sc_hd__o21ai_1
*I *529:X O *D sky130_fd_sc_hd__a21o_1
*CAP
1 *537:A2 8.94727e-05
2 *529:X 8.94727e-05
3 *537:A2 *548:C1 7.83659e-05
4 *537:A2 *150:14 5.52302e-05
*RES
1 *529:X *537:A2 29.1714 
*END

*D_NET *59 0.000607532
*CONN
*I *532:B I *D sky130_fd_sc_hd__and3_1
*I *530:Y O *D sky130_fd_sc_hd__nand2_1
*CAP
1 *532:B 0.000117796
2 *530:Y 0.000117796
3 *532:B *531:A 0.000194833
4 *532:B *100:10 0.000177108
*RES
1 *530:Y *532:B 30.6893 
*END

*D_NET *60 0.00142629
*CONN
*I *532:C I *D sky130_fd_sc_hd__and3_1
*I *534:B2 I *D sky130_fd_sc_hd__a22o_1
*I *531:X O *D sky130_fd_sc_hd__or2_1
*CAP
1 *532:C 0.000130387
2 *534:B2 0.000111638
3 *531:X 0.000178245
4 *60:10 0.000420271
5 *532:C *533:B1 9.58126e-05
6 *532:C *152:19 2.62951e-05
7 *532:C *174:22 0.000205075
8 *534:B2 *451:A 9.83442e-05
9 *534:B2 *451:B_N 2.85268e-05
10 *534:B2 *534:B1 1.97695e-05
11 *534:B2 *174:22 4.77132e-05
12 *60:10 *531:A 4.85049e-06
13 *60:10 *152:19 5.93614e-05
*RES
1 *531:X *60:10 16.3893 
2 *60:10 *534:B2 16.7286 
3 *60:10 *532:C 16.5679 
*END

*D_NET *61 0.000698528
*CONN
*I *533:B1 I *D sky130_fd_sc_hd__a31o_1
*I *532:X O *D sky130_fd_sc_hd__and3_1
*CAP
1 *533:B1 0.000185488
2 *532:X 0.000185488
3 *533:B1 *152:19 0.000121842
4 *533:B1 *152:28 5.49489e-05
5 *533:B1 *173:31 5.49489e-05
6 *532:C *533:B1 9.58126e-05
*RES
1 *532:X *533:B1 30.725 
*END

*D_NET *62 0.00214778
*CONN
*I *536:B1 I *D sky130_fd_sc_hd__a2111oi_1
*I *533:X O *D sky130_fd_sc_hd__a31o_1
*CAP
1 *536:B1 0.000739006
2 *533:X 0.000739006
3 *536:B1 *461:A1_N 2.84026e-05
4 *536:B1 *533:A3 3.02232e-05
5 *536:B1 *536:C1 0.000455725
6 *536:B1 *536:D1 0.000140933
7 *536:B1 *89:56 1.4487e-05
*RES
1 *533:X *536:B1 38.4036 
*END

*D_NET *63 0.0020917
*CONN
*I *536:C1 I *D sky130_fd_sc_hd__a2111oi_1
*I *534:X O *D sky130_fd_sc_hd__a22o_1
*CAP
1 *536:C1 0.000342562
2 *534:X 0.000342562
3 *536:C1 *435:B2 0
4 *536:C1 *461:A2_N 2.06178e-05
5 *536:C1 *533:A3 0.000242544
6 *536:C1 *535:A 5.52302e-05
7 *536:C1 *536:D1 0.000140933
8 *536:C1 *550:A 0.00023502
9 *536:C1 *89:56 0.000181796
10 *536:C1 *157:75 0
11 *536:C1 *173:37 7.47136e-05
12 *536:B1 *536:C1 0.000455725
*RES
1 *534:X *536:C1 37.8679 
*END

*D_NET *64 0.00033504
*CONN
*I *536:D1 I *D sky130_fd_sc_hd__a2111oi_1
*I *535:Y O *D sky130_fd_sc_hd__nor2_1
*CAP
1 *536:D1 2.65875e-05
2 *535:Y 2.65875e-05
3 *536:B1 *536:D1 0.000140933
4 *536:C1 *536:D1 0.000140933
*RES
1 *535:Y *536:D1 19.9571 
*END

*D_NET *65 0.00334781
*CONN
*I *582:A I *D sky130_fd_sc_hd__clkbuf_1
*I *536:Y O *D sky130_fd_sc_hd__a2111oi_1
*CAP
1 *582:A 0.000969018
2 *536:Y 0.000969018
3 *582:A *487:A1 0.00018845
4 *582:A *487:A3 0.000191864
5 *582:A *488:A2_N 5.50052e-05
6 *582:A *488:B2 0.000354016
7 *582:A *490:B1 5.49995e-05
8 *582:A *521:A1 8.48678e-06
9 *582:A *536:A1 6.42095e-05
10 *582:A *536:A2 9.90431e-05
11 *582:A *87:14 0
12 *582:A *89:56 4.13496e-05
13 *582:A *109:57 3.32531e-05
14 *582:A *169:10 0.000135243
15 *582:A *169:57 0.000104487
16 *582:A *170:45 7.93713e-05
*RES
1 *536:Y *582:A 46.0643 
*END

*D_NET *66 0.00179366
*CONN
*I *545:A1 I *D sky130_fd_sc_hd__o31a_1
*I *544:A1 I *D sky130_fd_sc_hd__o21ai_1
*I *538:X O *D sky130_fd_sc_hd__and2b_1
*CAP
1 *545:A1 0.0002083
2 *544:A1 0.000161363
3 *538:X 0.000115806
4 *66:6 0.000485468
5 *544:A1 *548:C1 6.92626e-05
6 *544:A1 *579:A 5.33005e-05
7 *544:A1 *71:8 0
8 *544:A1 *150:14 2.59355e-05
9 *545:A1 *492:B1 6.42242e-05
10 *545:A1 *545:B1 1.58163e-05
11 *545:A1 *548:C1 0.000148903
12 *545:A1 *549:B1 0
13 *545:A1 *580:A 5.33005e-05
14 *545:A2 *544:A1 0.000170654
15 *55:16 *544:A1 0.000221326
*RES
1 *538:X *66:6 10.6571 
2 *66:6 *544:A1 22.9071 
3 *66:6 *545:A1 22.1393 
*END

*D_NET *67 0.00172876
*CONN
*I *546:B1 I *D sky130_fd_sc_hd__a22oi_1
*I *541:A I *D sky130_fd_sc_hd__nand2_1
*I *539:X O *D sky130_fd_sc_hd__or2_1
*CAP
1 *546:B1 0.000146127
2 *541:A 4.39974e-05
3 *539:X 0.000130911
4 *67:12 0.000321035
5 *541:A *541:B 5.52238e-05
6 *541:A *546:A1 4.88637e-05
7 *541:A *152:59 0.000146846
8 *546:B1 *541:B 0.000122591
9 *546:B1 *546:A1 5.25194e-05
10 *546:B1 *546:A2 7.80474e-05
11 *546:B1 *546:B2 3.50166e-05
12 *546:B1 *152:59 0.000343956
13 *67:12 *540:B 5.71472e-05
14 *67:12 *546:A1 0
15 *67:12 *80:14 0.000146474
16 *67:12 *152:59 0
*RES
1 *539:X *67:12 20.7821 
2 *67:12 *541:A 11.0857 
3 *67:12 *546:B1 13.9786 
*END

*D_NET *68 0.00200909
*CONN
*I *547:B1 I *D sky130_fd_sc_hd__o221a_1
*I *541:B I *D sky130_fd_sc_hd__nand2_1
*I *540:Y O *D sky130_fd_sc_hd__nand2_1
*CAP
1 *547:B1 0.000234362
2 *541:B 5.0616e-05
3 *540:Y 9.00884e-05
4 *68:10 0.000375067
5 *541:B *546:A1 0.000177815
6 *547:B1 *517:B 6.00106e-05
7 *547:B1 *547:A1 0.000222629
8 *547:B1 *547:B2 3.08664e-05
9 *547:B1 *548:B1 1.32293e-05
10 *547:B1 *549:B1 7.02183e-05
11 *547:B1 *80:14 1.34741e-05
12 *547:B1 *94:14 0.00019142
13 *547:B1 *173:53 2.4546e-05
14 *68:10 *547:A1 0.00012401
15 *68:10 *94:14 0.00012401
16 *68:10 *174:36 2.89114e-05
17 *541:A *541:B 5.52238e-05
18 *546:B1 *541:B 0.000122591
*RES
1 *540:Y *68:10 15.9786 
2 *68:10 *541:B 15.5679 
3 *68:10 *547:B1 20.3536 
*END

*D_NET *69 0.00184646
*CONN
*I *548:A2 I *D sky130_fd_sc_hd__o211a_1
*I *543:A I *D sky130_fd_sc_hd__xnor2_1
*I *541:Y O *D sky130_fd_sc_hd__nand2_1
*CAP
1 *548:A2 0.000105406
2 *543:A 0.000600106
3 *541:Y 0
4 *69:4 0.000705512
5 *543:A *546:A1 2.65105e-05
6 *543:A *94:40 1.6815e-05
7 *543:A *152:59 0.000186669
8 *548:A2 *548:C1 5.74309e-05
9 *548:A2 *80:14 2.45881e-05
10 *54:8 *543:A 0.00012342
*RES
1 *541:Y *69:4 9.3 
2 *69:4 *543:A 27.425 
3 *69:4 *548:A2 20.2464 
*END

*D_NET *70 0.000366993
*CONN
*I *543:B I *D sky130_fd_sc_hd__xnor2_1
*I *542:X O *D sky130_fd_sc_hd__o31a_1
*CAP
1 *543:B 3.88669e-05
2 *542:X 3.88669e-05
3 *543:B *524:A2 2.85234e-05
4 *543:B *94:27 7.62323e-05
5 *542:A3 *543:B 0.000184503
*RES
1 *542:X *543:B 20.3679 
*END

*D_NET *71 0.00240515
*CONN
*I *544:B1 I *D sky130_fd_sc_hd__o21ai_1
*I *545:A3 I *D sky130_fd_sc_hd__o31a_1
*I *543:Y O *D sky130_fd_sc_hd__xnor2_1
*CAP
1 *544:B1 0.000164225
2 *545:A3 0.000153476
3 *543:Y 0.000187317
4 *71:8 0.000505018
5 *544:B1 *549:A1 0
6 *544:B1 *579:A 0.000102207
7 *544:B1 *580:A 0
8 *544:B1 *94:40 0.000216771
9 *544:B1 *150:14 0.000188586
10 *545:A3 *545:B1 5.52238e-05
11 *545:A3 *549:A1 2.47724e-05
12 *545:A3 *580:A 1.39841e-05
13 *71:8 *548:C1 0
14 *71:8 *94:40 0.000483764
15 *71:8 *173:70 0.000123142
16 *544:A1 *71:8 0
17 *55:16 *544:B1 0
18 *55:16 *545:A3 0.000186662
19 *55:16 *71:8 0
*RES
1 *543:Y *71:8 19.9964 
2 *71:8 *545:A3 17.2107 
3 *71:8 *544:B1 18.8536 
*END

*D_NET *72 0.00116451
*CONN
*I *549:A1 I *D sky130_fd_sc_hd__a21oi_1
*I *544:Y O *D sky130_fd_sc_hd__o21ai_1
*CAP
1 *549:A1 0.000368498
2 *544:Y 0.000368498
3 *549:A1 *552:C 1.33343e-05
4 *549:A1 *580:A 0.000389409
5 *544:B1 *549:A1 0
6 *545:A3 *549:A1 2.47724e-05
*RES
1 *544:Y *549:A1 32.8679 
*END

*D_NET *73 0.000102264
*CONN
*I *549:A2 I *D sky130_fd_sc_hd__a21oi_1
*I *545:X O *D sky130_fd_sc_hd__o31a_1
*CAP
1 *549:A2 1.29188e-05
2 *545:X 1.29188e-05
3 *549:A2 *545:B1 1.92789e-05
4 *549:A2 *580:A 5.71472e-05
*RES
1 *545:X *549:A2 19.1357 
*END

*D_NET *74 0.000917128
*CONN
*I *547:C1 I *D sky130_fd_sc_hd__o221a_1
*I *546:Y O *D sky130_fd_sc_hd__a22oi_1
*CAP
1 *547:C1 0.00023931
2 *546:Y 0.00023931
3 *547:C1 *517:B 7.86132e-05
4 *547:C1 *547:B2 0.000107497
5 *547:C1 *109:31 6.53562e-05
6 *547:C1 *152:59 0.000187042
*RES
1 *546:Y *547:C1 32.2607 
*END

*D_NET *75 0.000549193
*CONN
*I *548:B1 I *D sky130_fd_sc_hd__o211a_1
*I *547:X O *D sky130_fd_sc_hd__o221a_1
*CAP
1 *548:B1 0.000151254
2 *547:X 0.000151254
3 *548:B1 *547:A1 8.43535e-06
4 *548:B1 *548:A1 0.000137639
5 *548:B1 *548:C1 3.23768e-05
6 *548:B1 *549:B1 5.50052e-05
7 *547:B1 *548:B1 1.32293e-05
*RES
1 *547:X *548:B1 21.6179 
*END

*D_NET *76 0.00180068
*CONN
*I *549:B1 I *D sky130_fd_sc_hd__a21oi_1
*I *548:X O *D sky130_fd_sc_hd__o211a_1
*CAP
1 *549:B1 0.000422467
2 *548:X 0.000422467
3 *549:B1 *492:B1 0.000201167
4 *549:B1 *94:14 0.00012249
5 *549:B1 *170:16 0.000506863
6 *522:B1 *549:B1 0
7 *545:A1 *549:B1 0
8 *547:B1 *549:B1 7.02183e-05
9 *548:B1 *549:B1 5.50052e-05
*RES
1 *548:X *549:B1 38.1893 
*END

*D_NET *77 0.00251395
*CONN
*I *551:C I *D sky130_fd_sc_hd__or3_4
*I *550:X O *D sky130_fd_sc_hd__or3_4
*CAP
1 *551:C 0.000688741
2 *550:X 0.000688741
3 *551:C *491:A1 0.000178847
4 *551:C *491:A2 0.00012401
5 *551:C *551:A 9.71197e-05
6 *551:C *552:B 0.00018184
7 *551:C *552:D 0.000309359
8 *551:C *577:A 9.71197e-05
9 *551:C *92:82 6.57032e-05
10 *551:C *162:6 5.52238e-05
11 *551:C *170:92 2.72449e-05
*RES
1 *550:X *551:C 42.0286 
*END

*D_NET *78 0.000850756
*CONN
*I *552:D I *D sky130_fd_sc_hd__nor4_4
*I *551:X O *D sky130_fd_sc_hd__or3_4
*CAP
1 *552:D 9.79492e-05
2 *551:X 9.79492e-05
3 *552:D *477:A 2.48938e-05
4 *552:D *552:B 0.000139907
5 *552:D *149:50 0.000170661
6 *552:D *170:92 1.00375e-05
7 *551:C *552:D 0.000309359
*RES
1 *551:X *552:D 31.5107 
*END

*D_NET *79 0.0125827
*CONN
*I *431:B1 I *D sky130_fd_sc_hd__a2bb2o_1
*I *491:A1 I *D sky130_fd_sc_hd__o22a_1
*I *505:B2 I *D sky130_fd_sc_hd__o32a_1
*I *548:C1 I *D sky130_fd_sc_hd__o211a_1
*I *529:B1 I *D sky130_fd_sc_hd__a21o_1
*I *522:A1 I *D sky130_fd_sc_hd__o21a_1
*I *429:X O *D sky130_fd_sc_hd__or2_2
*CAP
1 *431:B1 0.000140382
2 *491:A1 0.000262335
3 *505:B2 2.3715e-05
4 *548:C1 0.00073511
5 *529:B1 5.83511e-05
6 *522:A1 0.000103528
7 *429:X 0
8 *79:43 0.00125852
9 *79:41 0.000762385
10 *79:12 0.000565464
11 *79:8 0.00113221
12 *79:4 0.000821934
13 *431:B1 *470:B1 0.000147325
14 *431:B1 *156:22 0.00014285
15 *491:A1 *491:A2 1.33343e-05
16 *491:A1 *552:B 1.74352e-05
17 *491:A1 *92:82 0
18 *491:A1 *148:30 0.000108538
19 *491:A1 *149:50 0.000104077
20 *505:B2 *171:60 2.23592e-05
21 *522:A1 *545:B1 0.000196534
22 *522:A1 *552:C 0.000218938
23 *522:A1 *163:8 0.000141132
24 *548:C1 *492:B1 0.000203908
25 *548:C1 *548:A1 6.05161e-06
26 *548:C1 *80:14 2.80728e-05
27 *548:C1 *167:20 0
28 *548:C1 *173:53 0.000184503
29 *548:C1 *173:70 0
30 *79:8 *470:B1 0
31 *79:8 *473:A3 9.06147e-05
32 *79:8 *473:B1 1.7849e-05
33 *79:8 *485:A 0.000217161
34 *79:8 *536:A2 0.000139975
35 *79:8 *84:31 4.66096e-05
36 *79:8 *148:30 0.000104236
37 *79:8 *149:37 3.20387e-05
38 *79:8 *149:50 0.000138594
39 *79:8 *152:51 0.000102007
40 *79:8 *168:20 0
41 *79:8 *169:10 0.000331273
42 *79:8 *169:57 0.000374845
43 *79:12 *552:C 0.000946873
44 *79:12 *163:8 0.000935455
45 *79:41 *493:B1 0.000262327
46 *79:41 *493:B2 1.8461e-05
47 *79:41 *494:A2 3.03071e-05
48 *79:41 *505:A1 0.000100262
49 *79:41 *505:A2 2.92927e-05
50 *79:41 *167:20 2.61337e-05
51 *79:41 *171:24 1.6603e-05
52 *79:41 *171:36 1.9774e-05
53 *79:41 *171:64 3.6572e-05
54 *79:43 *171:60 7.32756e-05
55 *522:B1 *522:A1 9.58181e-05
56 *527:B1 *529:B1 1.58163e-05
57 *527:B1 *79:43 3.67257e-05
58 *529:A2 *529:B1 0
59 *537:A2 *548:C1 7.83659e-05
60 *544:A1 *548:C1 6.92626e-05
61 *545:A1 *548:C1 0.000148903
62 *545:A2 *548:C1 0.000172375
63 *548:A2 *548:C1 5.74309e-05
64 *548:B1 *548:C1 3.23768e-05
65 *551:C *491:A1 0.000178847
66 *56:10 *548:C1 0.000126439
67 *56:12 *548:C1 8.07879e-05
68 *71:8 *548:C1 0
*RES
1 *429:X *79:4 9.3 
2 *79:4 *79:8 22.2321 
3 *79:8 *79:12 13.6607 
4 *79:12 *522:A1 13.2643 
5 *79:12 *79:41 24.4107 
6 *79:41 *79:43 7.92857 
7 *79:43 *529:B1 10.2643 
8 *79:43 *548:C1 35.8 
9 *79:41 *505:B2 9.83571 
10 *79:8 *491:A1 19.5679 
11 *79:4 *431:B1 21.6036 
*END

*D_NET *80 0.0114972
*CONN
*I *431:B2 I *D sky130_fd_sc_hd__a2bb2o_1
*I *470:B1 I *D sky130_fd_sc_hd__a21oi_1
*I *492:B1 I *D sky130_fd_sc_hd__a21oi_1
*I *548:A1 I *D sky130_fd_sc_hd__o211a_1
*I *430:X O *D sky130_fd_sc_hd__or3b_2
*CAP
1 *431:B2 0
2 *470:B1 0.000619552
3 *492:B1 0.000603136
4 *548:A1 4.36901e-05
5 *430:X 0
6 *80:52 0.00159873
7 *80:14 0.00171665
8 *80:4 0.00204901
9 *470:B1 *440:B 0.000110199
10 *470:B1 *462:A2 6.50073e-05
11 *470:B1 *471:B2 1.32293e-05
12 *470:B1 *472:A2_N 0.000105706
13 *470:B1 *473:B1 3.20759e-05
14 *470:B1 *489:B2 3.09985e-05
15 *470:B1 *578:A 0
16 *470:B1 *84:31 0.000398863
17 *470:B1 *84:59 0.000280048
18 *470:B1 *109:57 1.73088e-05
19 *470:B1 *146:35 6.72692e-05
20 *470:B1 *149:31 0.000201379
21 *470:B1 *168:47 0
22 *470:B1 *175:41 0
23 *492:B1 *545:B1 0.000289245
24 *492:B1 *552:C 0.00019155
25 *492:B1 *94:14 8.0025e-05
26 *492:B1 *165:8 5.52238e-05
27 *548:A1 *547:A1 6.05161e-06
28 *548:A1 *173:53 3.81843e-05
29 *80:14 *436:C 0.000625181
30 *80:14 *547:A1 0.00033544
31 *80:14 *89:14 0
32 *80:14 *94:14 4.40513e-06
33 *80:14 *152:59 0
34 *80:14 *153:12 0
35 *80:14 *154:6 4.88637e-05
36 *80:14 *154:19 4.25523e-05
37 *80:14 *154:30 4.98872e-05
38 *80:14 *154:54 0.000120402
39 *80:14 *170:16 0
40 *80:52 *436:B 2.34204e-05
41 *80:52 *436:C 0.00036138
42 *80:52 *437:A 0
43 *80:52 *87:8 3.67257e-05
44 *80:52 *146:14 1.02821e-05
45 result[0] *80:52 8.50152e-05
46 *431:B1 *470:B1 0.000147325
47 *522:A2 *492:B1 0.000167609
48 *545:A1 *492:B1 6.42242e-05
49 *547:B1 *80:14 1.34741e-05
50 *548:A2 *80:14 2.45881e-05
51 *548:B1 *548:A1 0.000137639
52 *548:C1 *492:B1 0.000203908
53 *548:C1 *548:A1 6.05161e-06
54 *548:C1 *80:14 2.80728e-05
55 *549:B1 *492:B1 0.000201167
56 *562:A *80:14 0
57 *67:12 *80:14 0.000146474
58 *79:8 *470:B1 0
*RES
1 *430:X *80:4 9.3 
2 *80:4 *80:14 25.0357 
3 *80:14 *548:A1 15.1571 
4 *80:14 *492:B1 38.9429 
5 *80:4 *80:52 24.7321 
6 *80:52 *470:B1 34.9071 
7 *80:52 *431:B2 9.3 
*END

*D_NET *81 0.000775764
*CONN
*I *432:B1 I *D sky130_fd_sc_hd__a21oi_1
*I *431:X O *D sky130_fd_sc_hd__a2bb2o_1
*CAP
1 *432:B1 0.000179811
2 *431:X 0.000179811
3 *432:B1 *432:A1 0.000130294
4 *432:B1 *432:A2 4.18895e-05
5 *432:B1 *573:A 0.000123857
6 *432:B1 *578:A 1.91418e-05
7 *432:B1 *146:14 0.00010096
*RES
1 *431:X *432:B1 32.1536 
*END

*D_NET *82 0.00140777
*CONN
*I *441:A I *D sky130_fd_sc_hd__or4_1
*I *432:Y O *D sky130_fd_sc_hd__a21oi_1
*CAP
1 *441:A 0.000479183
2 *432:Y 0.000479183
3 *441:A *441:B 5.7616e-05
4 *441:A *573:A 0.000265447
5 *441:A *578:A 0.000126342
*RES
1 *432:Y *441:A 34.4393 
*END

*D_NET *83 0.00365391
*CONN
*I *572:A I *D sky130_fd_sc_hd__clkbuf_2
*I *494:A3 I *D sky130_fd_sc_hd__a31o_1
*I *433:Y O *D sky130_fd_sc_hd__nor3b_1
*CAP
1 *572:A 0.000230103
2 *494:A3 0.000749438
3 *433:Y 0
4 *83:4 0.00097954
5 *494:A3 *494:A2 5.71472e-05
6 *494:A3 *494:B1 9.71197e-05
7 *494:A3 *496:A2 0.000182771
8 *494:A3 *505:A1 1.33343e-05
9 *494:A3 *505:A3 0.000165995
10 *494:A3 *552:B 3.0166e-05
11 *494:A3 *84:10 0.000335409
12 *494:A3 *84:89 0.00034465
13 *494:A3 *87:27 0
14 *494:A3 *92:38 5.739e-05
15 *494:A3 *92:61 6.81459e-05
16 *494:A3 *171:64 7.453e-05
17 *572:A *174:36 0.000146278
18 *520:B1 *494:A3 0.000121897
*RES
1 *433:Y *83:4 9.3 
2 *83:4 *494:A3 36.9964 
3 *83:4 *572:A 12.3179 
*END

*D_NET *84 0.0138101
*CONN
*I *496:A2 I *D sky130_fd_sc_hd__a221o_1
*I *488:B1 I *D sky130_fd_sc_hd__a2bb2o_1
*I *473:B1 I *D sky130_fd_sc_hd__a32o_1
*I *462:A2 I *D sky130_fd_sc_hd__a221o_1
*I *534:A2 I *D sky130_fd_sc_hd__a22o_1
*I *435:B1 I *D sky130_fd_sc_hd__a32o_1
*I *519:B1 I *D sky130_fd_sc_hd__a2bb2o_1
*I *434:X O *D sky130_fd_sc_hd__and3_2
*CAP
1 *496:A2 0.000166268
2 *488:B1 3.48189e-05
3 *473:B1 0.000139695
4 *462:A2 0.000769463
5 *534:A2 5.48608e-05
6 *435:B1 0.000330361
7 *519:B1 0
8 *434:X 0.000491931
9 *84:89 0.000352311
10 *84:59 0.00101448
11 *84:31 0.000787951
12 *84:25 0.000649912
13 *84:16 0.000346086
14 *84:10 0.00084738
15 *435:B1 *435:A1 2.01893e-05
16 *435:B1 *461:B2 7.05375e-05
17 *435:B1 *534:B1 0.000128154
18 *435:B1 *146:43 7.83659e-05
19 *435:B1 *175:27 2.84026e-05
20 *435:B1 *175:31 9.48089e-05
21 *435:B1 *175:67 1.17968e-05
22 *462:A2 *454:A 1.30958e-05
23 *462:A2 *458:A2 0
24 *462:A2 *462:A1 0.000368952
25 *462:A2 *462:B2 2.54477e-05
26 *462:A2 *470:A2 2.11336e-05
27 *462:A2 *471:B2 5.66971e-05
28 *462:A2 *149:31 8.25843e-06
29 *462:A2 *168:39 3.01245e-06
30 *462:A2 *168:43 8.10737e-06
31 *462:A2 *168:47 6.3629e-05
32 *473:B1 *473:A3 0.000239559
33 *473:B1 *473:B2 9.84729e-05
34 *473:B1 *489:B2 5.66943e-05
35 *473:B1 *536:A2 3.28611e-05
36 *473:B1 *109:61 4.3143e-05
37 *473:B1 *148:30 3.57752e-05
38 *473:B1 *149:31 1.84366e-05
39 *488:B1 *488:B2 0.000182811
40 *488:B1 *109:57 0.000182811
41 *496:A2 *87:52 0.000330233
42 *496:A2 *92:38 9.3429e-05
43 *496:A2 *170:29 0.0001715
44 *534:A2 *534:B1 0.000208499
45 *534:A2 *174:36 0.000220935
46 *84:10 *433:C_N 0
47 *84:10 *453:B 0.000230482
48 *84:10 *102:12 0.000642052
49 *84:10 *155:99 2.27189e-05
50 *84:16 *487:A1 5.66971e-05
51 *84:16 *519:A2_N 9.84729e-05
52 *84:16 *536:A1 2.12647e-05
53 *84:16 *172:61 0.000107363
54 *84:16 *173:45 3.11088e-05
55 *84:16 *173:53 3.80459e-05
56 *84:25 *487:A1 9.75679e-05
57 *84:25 *169:14 0.000178503
58 *84:25 *173:45 5.89582e-05
59 *84:31 *534:B1 5.33005e-05
60 *84:31 *536:A2 0.000259203
61 *84:31 *174:36 0.000608141
62 *84:59 *536:A2 0.000274678
63 *84:89 *92:12 1.03904e-05
64 *84:89 *92:38 9.23044e-05
65 *84:89 *102:12 0.000144132
66 *470:B1 *462:A2 6.50073e-05
67 *470:B1 *473:B1 3.20759e-05
68 *470:B1 *84:31 0.000398863
69 *470:B1 *84:59 0.000280048
70 *494:A3 *496:A2 0.000182771
71 *494:A3 *84:10 0.000335409
72 *494:A3 *84:89 0.00034465
73 *520:B1 *84:16 0.0001802
74 *79:8 *473:B1 1.7849e-05
75 *79:8 *84:31 4.66096e-05
*RES
1 *434:X *84:10 24.7107 
2 *84:10 *84:16 9.57143 
3 *84:16 *519:B1 9.3 
4 *84:16 *84:25 7.5 
5 *84:25 *84:31 15.6607 
6 *84:31 *435:B1 24.6304 
7 *84:31 *534:A2 11.4786 
8 *84:25 *84:59 3.76786 
9 *84:59 *462:A2 24.3937 
10 *84:59 *473:B1 18.2196 
11 *84:10 *84:89 4.67857 
12 *84:89 *488:B1 15.5679 
13 *84:89 *496:A2 19.5679 
*END

*D_NET *85 0.000796971
*CONN
*I *441:B I *D sky130_fd_sc_hd__or4_1
*I *435:X O *D sky130_fd_sc_hd__a32o_1
*CAP
1 *441:B 0.000235281
2 *435:X 0.000235281
3 *441:B *438:B1 2.7505e-05
4 *441:B *441:C 2.89114e-05
5 *441:B *534:B1 6.35864e-05
6 *441:B *578:A 5.2696e-05
7 *441:B *146:39 9.60939e-05
8 *441:B *175:10 0
9 *441:B *175:14 0
10 *441:A *441:B 5.7616e-05
*RES
1 *435:X *441:B 31.7607 
*END

*D_NET *86 0.000673806
*CONN
*I *437:A I *D sky130_fd_sc_hd__buf_2
*I *436:X O *D sky130_fd_sc_hd__and3b_1
*CAP
1 *437:A 0.000273584
2 *436:X 0.000273584
3 *437:A *146:14 0.000126639
4 *80:52 *437:A 0
*RES
1 *436:X *437:A 31.725 
*END

*D_NET *87 0.0140861
*CONN
*I *438:B1 I *D sky130_fd_sc_hd__o21a_1
*I *534:B1 I *D sky130_fd_sc_hd__a22o_1
*I *493:B1 I *D sky130_fd_sc_hd__o22a_1
*I *471:B1 I *D sky130_fd_sc_hd__o22a_1
*I *462:B1 I *D sky130_fd_sc_hd__a221o_1
*I *490:A1 I *D sky130_fd_sc_hd__a211o_1
*I *518:B2 I *D sky130_fd_sc_hd__a2bb2o_1
*I *546:B2 I *D sky130_fd_sc_hd__a22oi_1
*I *437:X O *D sky130_fd_sc_hd__buf_2
*CAP
1 *438:B1 8.9075e-05
2 *534:B1 0.000322199
3 *493:B1 0.000336837
4 *471:B1 3.74483e-05
5 *462:B1 0.000304749
6 *490:A1 0
7 *518:B2 5.31677e-05
8 *546:B2 0.000180514
9 *437:X 7.17223e-05
10 *87:110 0.00151649
11 *87:69 0.000923191
12 *87:52 0.000976643
13 *87:44 0.00103877
14 *87:27 0.000637871
15 *87:14 0.00106767
16 *87:8 0.00178567
17 *438:B1 *438:A2 1.53129e-05
18 *438:B1 *442:A 3.18676e-05
19 *438:B1 *550:A 7.69776e-06
20 *438:B1 *156:22 5.71472e-05
21 *462:B1 *457:A 0.000219289
22 *462:B1 *462:C1 3.4846e-06
23 *462:B1 *471:A1 3.42301e-05
24 *462:B1 *550:A 0
25 *462:B1 *157:38 0.000123352
26 *471:B1 *457:A 5.33005e-05
27 *471:B1 *474:A 4.93118e-06
28 *493:B1 *494:A2 0.000141729
29 *493:B1 *167:20 7.61528e-05
30 *493:B1 *172:39 0
31 *518:B2 *105:14 0.000138672
32 *534:B1 *435:A3 2.49484e-05
33 *534:B1 *451:A 0.000137357
34 *534:B1 *550:A 1.9419e-05
35 *534:B1 *578:A 2.28159e-05
36 *534:B1 *146:43 4.75812e-05
37 *534:B1 *174:22 1.34548e-05
38 *534:B1 *174:36 2.36643e-05
39 *534:B1 *175:67 0.000129868
40 *546:B2 *546:A2 0.000148259
41 *546:B2 *152:59 0.000286476
42 *87:14 *89:56 9.25014e-06
43 *87:14 *92:12 0.000164959
44 *87:14 *102:12 4.16207e-05
45 *87:14 *152:59 0.000252082
46 *87:14 *169:10 0
47 *87:44 *495:B 7.92444e-05
48 *87:44 *167:20 2.35313e-05
49 *87:44 *171:64 1.42249e-05
50 *87:52 *490:A2 5.50052e-05
51 *87:52 *496:A1 3.47793e-05
52 *87:52 *170:29 0.00011688
53 *87:69 *473:A3 1.59479e-05
54 *87:69 *473:B2 0.000114159
55 *87:69 *474:A 4.94761e-05
56 *87:69 *474:C 5.52238e-05
57 *87:69 *490:A2 9.85599e-06
58 *87:69 *490:C1 5.49995e-05
59 *87:69 *148:30 0.000321021
60 *87:69 *170:29 5.52238e-05
61 *87:69 *170:70 7.62628e-05
62 *87:110 *461:A2_N 0
63 *435:B1 *534:B1 0.000128154
64 *441:B *438:B1 2.7505e-05
65 *441:B *534:B1 6.35864e-05
66 *494:A3 *87:27 0
67 *496:A2 *87:52 0.000330233
68 *518:A2_N *518:B2 3.41517e-06
69 *518:B1 *518:B2 5.49489e-05
70 *520:A2 *518:B2 2.36643e-05
71 *520:A3 *518:B2 4.08637e-05
72 *521:C1 *87:44 3.00989e-05
73 *534:A2 *534:B1 0.000208499
74 *534:B2 *534:B1 1.97695e-05
75 *546:B1 *546:B2 3.50166e-05
76 *582:A *87:14 0
77 *47:10 *87:27 9.91224e-05
78 *47:10 *87:44 2.21254e-05
79 *79:41 *493:B1 0.000262327
80 *80:52 *87:8 3.67257e-05
81 *84:31 *534:B1 5.33005e-05
*RES
1 *437:X *87:8 14.7464 
2 *87:8 *87:14 15.6429 
3 *87:14 *546:B2 14.7821 
4 *87:14 *87:27 9.17857 
5 *87:27 *518:B2 15.5857 
6 *87:27 *87:44 5.33929 
7 *87:44 *87:52 12.0536 
8 *87:52 *490:A1 9.3 
9 *87:52 *87:69 11.8214 
10 *87:69 *462:B1 23.2643 
11 *87:69 *471:B1 10.2464 
12 *87:44 *493:B1 20.7464 
13 *87:8 *87:110 8.88487 
14 *87:110 *534:B1 22.0946 
15 *87:110 *438:B1 15.7554 
*END

*D_NET *88 0.00031364
*CONN
*I *441:C I *D sky130_fd_sc_hd__or4_1
*I *438:X O *D sky130_fd_sc_hd__o21a_1
*CAP
1 *441:C 6.7235e-05
2 *438:X 6.7235e-05
3 *441:C *442:A 5.71472e-05
4 *441:C *156:22 9.3111e-05
5 *441:B *441:C 2.89114e-05
*RES
1 *438:X *441:C 20.3679 
*END

*D_NET *89 0.0137403
*CONN
*I *488:A2_N I *D sky130_fd_sc_hd__a2bb2o_1
*I *519:A2_N I *D sky130_fd_sc_hd__a2bb2o_1
*I *535:B I *D sky130_fd_sc_hd__nor2_1
*I *461:A2_N I *D sky130_fd_sc_hd__a2bb2o_1
*I *472:A2_N I *D sky130_fd_sc_hd__a2bb2o_1
*I *440:B I *D sky130_fd_sc_hd__nor2_1
*I *495:B I *D sky130_fd_sc_hd__nor2_1
*I *547:A2 I *D sky130_fd_sc_hd__o221a_1
*I *439:Y O *D sky130_fd_sc_hd__nand3b_4
*CAP
1 *488:A2_N 0.000124167
2 *519:A2_N 1.75622e-05
3 *535:B 0
4 *461:A2_N 0.000612456
5 *472:A2_N 0.000496469
6 *440:B 0.000330205
7 *495:B 2.59666e-05
8 *547:A2 0
9 *439:Y 0.000796358
10 *89:58 0.00143913
11 *89:56 0.000405253
12 *89:44 0.000621968
13 *89:40 0.0007058
14 *89:27 0.00106172
15 *89:14 0.00144963
16 *440:B *435:A3 0
17 *440:B *578:A 0
18 *440:B *146:35 5.52302e-05
19 *440:B *146:39 8.45664e-05
20 *440:B *173:45 8.6229e-06
21 *461:A2_N *435:B2 5.7903e-06
22 *472:A2_N *462:A1 2.12647e-05
23 *472:A2_N *470:A2 1.89507e-06
24 *472:A2_N *471:A1 0.000137639
25 *472:A2_N *578:A 0.000190142
26 *472:A2_N *149:14 0.000228876
27 *472:A2_N *149:31 1.6815e-05
28 *472:A2_N *168:47 9.58689e-05
29 *472:A2_N *173:45 0.000188762
30 *488:A2_N *491:B1 7.96727e-05
31 *488:A2_N *109:57 0.000122696
32 *488:A2_N *170:35 4.27842e-06
33 *519:A2_N *536:A1 5.66971e-05
34 *519:A2_N *172:61 5.50052e-05
35 *89:14 *439:B 0.000353638
36 *89:14 *154:30 0
37 *89:14 *154:54 0
38 *89:14 *155:33 0.000269378
39 *89:14 *170:16 0.000500316
40 *89:27 *496:B1 2.83425e-05
41 *89:27 *517:B 7.6997e-05
42 *89:27 *109:57 0.000221815
43 *89:27 *170:16 0.000329048
44 *89:40 *109:57 0.000564519
45 *89:44 *491:B1 7.74068e-05
46 *89:44 *92:12 4.38184e-05
47 *89:44 *92:38 4.76868e-05
48 *89:56 *536:A1 0.000414458
49 *89:56 *536:A2 2.78509e-05
50 *89:56 *92:12 6.75747e-05
51 *89:56 *152:59 0.000481581
52 *89:56 *173:37 0
53 *470:B1 *440:B 0.000110199
54 *470:B1 *472:A2_N 0.000105706
55 *521:C1 *495:B 7.92444e-05
56 *536:B1 *89:56 1.4487e-05
57 *536:C1 *461:A2_N 2.06178e-05
58 *536:C1 *89:56 0.000181796
59 *582:A *488:A2_N 5.50052e-05
60 *582:A *89:56 4.13496e-05
61 *80:14 *89:14 0
62 *84:16 *519:A2_N 9.84729e-05
63 *87:14 *89:56 9.25014e-06
64 *87:44 *495:B 7.92444e-05
65 *87:110 *461:A2_N 0
*RES
1 *439:Y *89:14 29.2464 
2 *89:14 *547:A2 13.8 
3 *89:14 *89:27 14.3393 
4 *89:27 *495:B 19.3357 
5 *89:27 *89:40 5.46429 
6 *89:40 *89:44 8.57143 
7 *89:44 *89:56 15.4464 
8 *89:56 *89:58 4.5 
9 *89:58 *440:B 20.5143 
10 *89:58 *472:A2_N 34.175 
11 *89:58 *461:A2_N 21.9527 
12 *89:56 *535:B 9.3 
13 *89:44 *519:A2_N 14.7464 
14 *89:40 *488:A2_N 20.8179 
*END

*D_NET *90 0.000500439
*CONN
*I *441:D I *D sky130_fd_sc_hd__or4_1
*I *440:Y O *D sky130_fd_sc_hd__nor2_1
*CAP
1 *441:D 0.000134042
2 *440:Y 0.000134042
3 *441:D *146:39 5.52238e-05
4 *441:D *156:22 0.000101557
5 *441:D *175:41 7.55747e-05
*RES
1 *440:Y *441:D 30.1357 
*END

*D_NET *91 0.000703104
*CONN
*I *442:A I *D sky130_fd_sc_hd__buf_1
*I *441:X O *D sky130_fd_sc_hd__or4_1
*CAP
1 *442:A 0.00024836
2 *441:X 0.00024836
3 *442:A *438:A2 3.08664e-05
4 *442:A *156:22 8.65014e-05
5 *438:B1 *442:A 3.18676e-05
6 *441:C *442:A 5.71472e-05
*RES
1 *441:X *442:A 23.1536 
*END

*D_NET *92 0.0150451
*CONN
*I *463:A1 I *D sky130_fd_sc_hd__a211o_1
*I *475:A1 I *D sky130_fd_sc_hd__a31o_1
*I *494:B1 I *D sky130_fd_sc_hd__a31o_1
*I *545:B1 I *D sky130_fd_sc_hd__o31a_1
*I *487:B1 I *D sky130_fd_sc_hd__a31o_1
*I *520:C1 I *D sky130_fd_sc_hd__a311o_1
*I *443:Y O *D sky130_fd_sc_hd__nor2_2
*CAP
1 *463:A1 0.000368065
2 *475:A1 0.00042726
3 *494:B1 7.1975e-05
4 *545:B1 0.000872227
5 *487:B1 0.000179535
6 *520:C1 7.12359e-05
7 *443:Y 0.000456222
8 *92:82 0.0017785
9 *92:61 0.00120736
10 *92:38 0.00135132
11 *92:14 0.000250771
12 *92:12 0.000783108
13 *463:A1 *446:A1 2.89114e-05
14 *463:A1 *446:A2 1.51413e-05
15 *463:A1 *452:A 5.1222e-05
16 *463:A1 *452:B 0.000377686
17 *463:A1 *463:A2 7.00748e-05
18 *463:A1 *463:C1 9.66977e-05
19 *463:A1 *94:93 0
20 *463:A1 *147:16 0.000232269
21 *475:A1 *449:B1 0
22 *475:A1 *468:B 0.000172027
23 *475:A1 *475:A2 0.000173592
24 *475:A1 *475:B1 0.00089065
25 *475:A1 *482:A 2.36643e-05
26 *475:A1 *95:14 0.000125724
27 *475:A1 *157:10 0
28 *475:A1 *157:38 0
29 *487:B1 *487:A2 5.67436e-05
30 *487:B1 *491:B1 5.35386e-05
31 *487:B1 *102:21 0.000342548
32 *487:B1 *102:42 0.000193676
33 *494:B1 *552:B 0.000225616
34 *520:C1 *520:A1 9.41642e-05
35 *520:C1 *102:21 5.33005e-05
36 *545:B1 *552:C 9.76435e-06
37 *545:B1 *580:A 7.12661e-05
38 *545:B1 *163:8 0.000521741
39 *545:B1 *165:8 0.000103033
40 *92:12 *102:12 0.000660615
41 *92:12 *156:40 4.88637e-05
42 *92:12 *156:53 0.000147596
43 *92:38 *491:B1 0
44 *92:61 *491:B1 0
45 *92:82 *446:A1 6.42095e-05
46 *92:82 *498:A2 0.000117621
47 *92:82 *498:A3 1.56e-05
48 *92:82 *498:A4 0.000184745
49 *92:82 *552:B 0.000194629
50 *92:82 *161:10 5.05404e-05
51 *92:82 *170:92 0.000126439
52 *92:82 *175:69 9.47613e-05
53 *92:82 *175:77 0.00010096
54 *491:A1 *92:82 0
55 *492:B1 *545:B1 0.000289245
56 *494:A3 *494:B1 9.71197e-05
57 *494:A3 *92:38 5.739e-05
58 *494:A3 *92:61 6.81459e-05
59 *496:A2 *92:38 9.3429e-05
60 *522:A1 *545:B1 0.000196534
61 *522:A2 *545:B1 5.33005e-05
62 *545:A1 *545:B1 1.58163e-05
63 *545:A3 *545:B1 5.52238e-05
64 *549:A2 *545:B1 1.92789e-05
65 *551:C *92:82 6.57032e-05
66 *84:89 *92:12 1.03904e-05
67 *84:89 *92:38 9.23044e-05
68 *87:14 *92:12 0.000164959
69 *89:44 *92:12 4.38184e-05
70 *89:44 *92:38 4.76868e-05
71 *89:56 *92:12 6.75747e-05
*RES
1 *443:Y *92:12 25.3357 
2 *92:12 *92:14 4.5 
3 *92:14 *520:C1 10.6571 
4 *92:14 *487:B1 14.9741 
5 *92:12 *92:38 7.10714 
6 *92:38 *545:B1 29.7286 
7 *92:38 *92:61 7.35714 
8 *92:61 *494:B1 11.4786 
9 *92:61 *92:82 24.1786 
10 *92:82 *475:A1 30.2286 
11 *92:82 *463:A1 18.1393 
*END

*D_NET *93 0.000677112
*CONN
*I *445:A I *D sky130_fd_sc_hd__buf_6
*I *444:X O *D sky130_fd_sc_hd__or3b_4
*CAP
1 *445:A 0.000227455
2 *444:X 0.000227455
3 *445:A *434:B 0
4 *445:A *444:A 2.4828e-05
5 *445:A *460:A 8.15939e-05
6 *445:A *154:58 1.13883e-05
7 *445:A *155:64 6.05161e-06
8 *445:A *174:36 9.83388e-05
*RES
1 *444:X *445:A 32.2964 
*END

*D_NET *94 0.0122905
*CONN
*I *465:B1 I *D sky130_fd_sc_hd__o21a_1
*I *446:A2 I *D sky130_fd_sc_hd__a21bo_1
*I *447:B I *D sky130_fd_sc_hd__nand3b_1
*I *476:A2 I *D sky130_fd_sc_hd__a21o_1
*I *498:B1 I *D sky130_fd_sc_hd__o41a_1
*I *507:A2 I *D sky130_fd_sc_hd__a21o_1
*I *524:A2 I *D sky130_fd_sc_hd__a21oi_1
*I *542:B1 I *D sky130_fd_sc_hd__o31a_1
*I *445:X O *D sky130_fd_sc_hd__buf_6
*CAP
1 *465:B1 0
2 *446:A2 6.00748e-05
3 *447:B 1.83012e-05
4 *476:A2 0
5 *498:B1 7.00163e-05
6 *507:A2 0
7 *524:A2 7.40186e-05
8 *542:B1 0
9 *445:X 0.00041753
10 *94:93 0.000385513
11 *94:79 0.000370536
12 *94:72 0.000135802
13 *94:55 0.00141907
14 *94:40 0.00175494
15 *94:27 0.000680352
16 *94:14 0.000545577
17 *446:A2 *446:A1 0.000180777
18 *446:A2 *147:16 0.000226231
19 *446:A2 *147:25 1.5424e-05
20 *446:A2 *175:69 4.08637e-05
21 *447:B *447:C 1.11677e-05
22 *447:B *147:25 2.41233e-05
23 *447:B *175:69 0.000100266
24 *498:B1 *477:A 9.15186e-06
25 *498:B1 *498:A4 1.40749e-05
26 *498:B1 *144:12 3.5707e-05
27 *498:B1 *148:22 0.00014209
28 *498:B1 *148:30 9.25014e-06
29 *524:A2 *151:27 0.000260442
30 *94:14 *546:A2 5.7616e-05
31 *94:14 *547:A1 1.3142e-05
32 *94:14 *151:36 0.000187564
33 *94:14 *170:16 0.000165657
34 *94:14 *174:36 5.71472e-05
35 *94:27 *542:A1 3.85691e-05
36 *94:27 *151:27 0.000186969
37 *94:27 *151:36 4.4545e-05
38 *94:40 *526:A 0.000177948
39 *94:40 *580:A 0
40 *94:40 *151:23 0
41 *94:55 *476:B1 1.40306e-05
42 *94:55 *507:B1 2.79092e-05
43 *94:55 *580:A 0
44 *94:55 *144:12 0.00229098
45 *94:55 *151:23 0
46 *94:72 *476:B1 2.22619e-05
47 *94:79 *476:B1 2.27416e-05
48 *94:93 *465:A2 8.22527e-05
49 *94:93 *96:12 0.00012401
50 *94:93 *147:25 6.37237e-05
51 *94:93 *147:27 0
52 *94:93 *175:77 0
53 *463:A1 *446:A2 1.51413e-05
54 *463:A1 *94:93 0
55 *492:B1 *94:14 8.0025e-05
56 *526:B *94:40 2.62337e-05
57 *529:A2 *94:55 0
58 *542:A3 *524:A2 5.66708e-05
59 *542:A3 *94:27 0.000151797
60 *543:A *94:40 1.6815e-05
61 *543:B *524:A2 2.85234e-05
62 *543:B *94:27 7.62323e-05
63 *544:B1 *94:40 0.000216771
64 *547:B1 *94:14 0.00019142
65 *549:B1 *94:14 0.00012249
66 *54:8 *94:40 0.000117815
67 *68:10 *94:14 0.00012401
68 *71:8 *94:40 0.000483764
69 *80:14 *94:14 4.40513e-06
*RES
1 *445:X *94:14 29.05 
2 *94:14 *542:B1 9.3 
3 *94:14 *94:27 4.69643 
4 *94:27 *524:A2 11.9071 
5 *94:27 *94:40 17.375 
6 *94:40 *507:A2 13.8 
7 *94:40 *94:55 29.6964 
8 *94:55 *498:B1 20.483 
9 *94:55 *94:72 1.375 
10 *94:72 *476:A2 9.3 
11 *94:72 *94:79 1.35714 
12 *94:79 *94:93 15.0357 
13 *94:93 *447:B 10.6393 
14 *94:93 *446:A2 11.8893 
15 *94:79 *465:B1 9.3 
*END

*D_NET *95 0.00138862
*CONN
*I *448:B I *D sky130_fd_sc_hd__and3_1
*I *449:A1 I *D sky130_fd_sc_hd__a21o_1
*I *446:X O *D sky130_fd_sc_hd__a21bo_1
*CAP
1 *448:B 0.000281632
2 *449:A1 0
3 *446:X 0.000182832
4 *95:14 0.000464465
5 *448:B *448:C 3.10961e-05
6 *448:B *449:A2 1.04232e-05
7 *448:B *449:B1 9.55007e-05
8 *95:14 *448:C 5.33005e-05
9 *95:14 *147:16 0.000143651
10 *95:14 *157:38 0
11 *475:A1 *95:14 0.000125724
*RES
1 *446:X *95:14 21.8357 
2 *95:14 *449:A1 9.3 
3 *95:14 *448:B 13.3357 
*END

*D_NET *96 0.00137946
*CONN
*I *448:C I *D sky130_fd_sc_hd__and3_1
*I *449:A2 I *D sky130_fd_sc_hd__a21o_1
*I *447:Y O *D sky130_fd_sc_hd__nand3b_1
*CAP
1 *448:C 0.000192968
2 *449:A2 1.99857e-05
3 *447:Y 0.00021503
4 *96:12 0.000427984
5 *448:C *449:B1 0.000132216
6 *448:C *98:10 8.77869e-05
7 *449:A2 *465:A2 0
8 *96:12 *475:B1 5.12344e-05
9 *96:12 *175:67 3.34295e-05
10 *96:12 *175:77 0
11 *448:B *448:C 3.10961e-05
12 *448:B *449:A2 1.04232e-05
13 *94:93 *96:12 0.00012401
14 *95:14 *448:C 5.33005e-05
*RES
1 *447:Y *96:12 22.2107 
2 *96:12 *449:A2 9.72857 
3 *96:12 *448:C 13.7643 
*END

*D_NET *97 0.00170404
*CONN
*I *450:A I *D sky130_fd_sc_hd__or2b_1
*I *464:B1 I *D sky130_fd_sc_hd__a21oi_1
*I *448:X O *D sky130_fd_sc_hd__and3_1
*CAP
1 *450:A 0.000287762
2 *464:B1 0.000135284
3 *448:X 4.14974e-05
4 *97:6 0.000464544
5 *450:A *450:B_N 9.47852e-05
6 *450:A *452:A 6.55528e-06
7 *450:A *463:B1 0.000143967
8 *450:A *463:C1 6.93855e-05
9 *450:A *550:B 5.65955e-05
10 *450:A *550:C 0
11 *450:A *98:10 9.77118e-05
12 *464:B1 *464:A1 0.000121496
13 *464:B1 *550:C 9.25681e-05
14 *464:B1 *574:A 0
15 *464:B1 *147:16 3.71887e-05
16 *97:6 *98:10 5.47001e-05
*RES
1 *448:X *97:6 9.83571 
2 *97:6 *464:B1 22.0679 
3 *97:6 *450:A 23.6571 
*END

*D_NET *98 0.00243252
*CONN
*I *450:B_N I *D sky130_fd_sc_hd__or2b_1
*I *464:A1 I *D sky130_fd_sc_hd__a21oi_1
*I *449:X O *D sky130_fd_sc_hd__a21o_1
*CAP
1 *450:B_N 0.000248758
2 *464:A1 0.000143785
3 *449:X 0.000218391
4 *98:10 0.000610934
5 *450:B_N *463:B1 0.000220463
6 *450:B_N *550:B 0.000268749
7 *450:B_N *574:A 6.98302e-05
8 *450:B_N *100:10 2.49484e-05
9 *450:B_N *147:16 7.70092e-05
10 *98:10 *147:16 9.3171e-05
11 *448:C *98:10 8.77869e-05
12 *450:A *450:B_N 9.47852e-05
13 *450:A *98:10 9.77118e-05
14 *464:B1 *464:A1 0.000121496
15 *97:6 *98:10 5.47001e-05
*RES
1 *449:X *98:10 13.2643 
2 *98:10 *464:A1 21.4607 
3 *98:10 *450:B_N 25.4071 
*END

*D_NET *99 0.000776203
*CONN
*I *452:A I *D sky130_fd_sc_hd__xnor2_1
*I *450:X O *D sky130_fd_sc_hd__or2b_1
*CAP
1 *452:A 0.000199922
2 *450:X 0.000199922
3 *452:A *463:A2 3.41517e-06
4 *452:A *463:C1 0.000145484
5 *452:A *550:B 9.99853e-05
6 *452:A *550:C 5.9483e-05
7 *452:A *147:16 1.02132e-05
8 *450:A *452:A 6.55528e-06
9 *463:A1 *452:A 5.1222e-05
*RES
1 *450:X *452:A 31.9482 
*END

*D_NET *100 0.00583341
*CONN
*I *464:A2 I *D sky130_fd_sc_hd__a21oi_1
*I *452:B I *D sky130_fd_sc_hd__xnor2_1
*I *451:X O *D sky130_fd_sc_hd__or2b_1
*CAP
1 *464:A2 0.000299072
2 *452:B 0.000269684
3 *451:X 0.00065013
4 *100:10 0.00121889
5 *452:B *463:A2 1.21258e-05
6 *464:A2 *550:B 9.22948e-05
7 *464:A2 *574:A 0.00034321
8 *464:A2 *147:66 0.000246057
9 *464:A2 *174:22 0
10 *100:10 *455:B 0.000195856
11 *100:10 *457:B 7.27183e-05
12 *100:10 *463:B1 0.000141728
13 *100:10 *531:A 3.49572e-05
14 *100:10 *532:A 0.000509942
15 *100:10 *550:B 0.000126446
16 *100:10 *147:66 0.00075356
17 *100:10 *173:10 0.000151973
18 *100:10 *174:22 0.000135028
19 *450:B_N *100:10 2.49484e-05
20 *463:A1 *452:B 0.000377686
21 *532:B *100:10 0.000177108
*RES
1 *451:X *100:10 34.4071 
2 *100:10 *452:B 18.4607 
3 *100:10 *464:A2 21.1571 
*END

*D_NET *101 0.000517246
*CONN
*I *463:A2 I *D sky130_fd_sc_hd__a211o_1
*I *452:Y O *D sky130_fd_sc_hd__xnor2_1
*CAP
1 *463:A2 0.00016169
2 *452:Y 0.00016169
3 *463:A2 *463:C1 5.49489e-05
4 *463:A2 *159:8 5.33005e-05
5 *452:A *463:A2 3.41517e-06
6 *452:B *463:A2 1.21258e-05
7 *463:A1 *463:A2 7.00748e-05
*RES
1 *452:Y *463:A2 21.6357 
*END

*D_NET *102 0.0100622
*CONN
*I *532:A I *D sky130_fd_sc_hd__and3_1
*I *458:A1 I *D sky130_fd_sc_hd__a31o_1
*I *487:A1 I *D sky130_fd_sc_hd__a31o_1
*I *520:A1 I *D sky130_fd_sc_hd__a311o_1
*I *453:Y O *D sky130_fd_sc_hd__nor3b_2
*CAP
1 *532:A 0.000434446
2 *458:A1 0.000167905
3 *487:A1 0.000234701
4 *520:A1 8.12059e-05
5 *453:Y 0.000300175
6 *102:42 0.00104801
7 *102:21 0.00075157
8 *102:12 0.000452586
9 *458:A1 *454:A 7.1959e-05
10 *458:A1 *458:A3 4.60235e-05
11 *458:A1 *462:B2 2.59355e-05
12 *458:A1 *462:C1 2.14108e-05
13 *458:A1 *104:10 0.000123352
14 *458:A1 *149:14 3.12359e-05
15 *458:A1 *157:38 2.35419e-05
16 *458:A1 *157:42 3.54498e-05
17 *487:A1 *169:57 0.000144139
18 *520:A1 *105:14 0.000221058
19 *532:A *455:A 7.57394e-05
20 *532:A *455:B 0.000100165
21 *532:A *174:22 0.000225555
22 *102:12 *155:99 5.52302e-05
23 *102:21 *105:14 0.000383412
24 *102:42 *455:A 1.98839e-05
25 *102:42 *485:B 9.58689e-05
26 *102:42 *487:A2 8.25843e-06
27 *102:42 *105:14 0.000968552
28 *102:42 *149:14 0.000890095
29 *487:B1 *102:21 0.000342548
30 *487:B1 *102:42 0.000193676
31 *520:C1 *520:A1 9.41642e-05
32 *520:C1 *102:21 5.33005e-05
33 *582:A *487:A1 0.00018845
34 *84:10 *102:12 0.000642052
35 *84:16 *487:A1 5.66971e-05
36 *84:25 *487:A1 9.75679e-05
37 *84:89 *102:12 0.000144132
38 *87:14 *102:12 4.16207e-05
39 *92:12 *102:12 0.000660615
40 *100:10 *532:A 0.000509942
*RES
1 *453:Y *102:12 28.9786 
2 *102:12 *520:A1 11.4786 
3 *102:12 *102:21 3.82143 
4 *102:21 *487:A1 31.9429 
5 *102:21 *102:42 13.2679 
6 *102:42 *458:A1 22.5143 
7 *102:42 *532:A 29.1571 
*END

*D_NET *103 0.0010626
*CONN
*I *457:B I *D sky130_fd_sc_hd__nor2_1
*I *458:A2 I *D sky130_fd_sc_hd__a31o_1
*I *454:Y O *D sky130_fd_sc_hd__nand2_1
*CAP
1 *457:B 0.000139612
2 *458:A2 6.26417e-05
3 *454:Y 7.34393e-05
4 *103:6 0.000275693
5 *457:B *458:B1 1.69452e-05
6 *457:B *463:B1 0.000124749
7 *458:A2 *454:A 0.000100115
8 *458:A2 *454:B 1.87331e-05
9 *458:A2 *458:A3 5.60386e-05
10 *458:A2 *463:B1 8.10737e-06
11 *103:6 *454:A 6.92966e-06
12 *103:6 *455:B 2.59355e-05
13 *103:6 *463:B1 5.50052e-05
14 *103:6 *147:66 2.59355e-05
15 *462:A2 *458:A2 0
16 *100:10 *457:B 7.27183e-05
*RES
1 *454:Y *103:6 10.6571 
2 *103:6 *458:A2 11.7107 
3 *103:6 *457:B 21.1929 
*END

*D_NET *104 0.00123636
*CONN
*I *458:A3 I *D sky130_fd_sc_hd__a31o_1
*I *462:B2 I *D sky130_fd_sc_hd__a221o_1
*I *455:X O *D sky130_fd_sc_hd__or2_1
*CAP
1 *458:A3 0.00010673
2 *462:B2 0.000165012
3 *455:X 0.000106822
4 *104:10 0.000378564
5 *458:A3 *454:A 7.92229e-06
6 *458:A3 *463:B1 1.32293e-05
7 *462:B2 *454:A 1.66994e-05
8 *462:B2 *462:A1 7.62942e-05
9 *462:B2 *463:C1 5.65955e-05
10 *462:B2 *471:A1 7.11278e-06
11 *104:10 *458:B1 2.45812e-05
12 *458:A1 *458:A3 4.60235e-05
13 *458:A1 *462:B2 2.59355e-05
14 *458:A1 *104:10 0.000123352
15 *458:A2 *458:A3 5.60386e-05
16 *462:A2 *462:B2 2.54477e-05
*RES
1 *455:X *104:10 20.55 
2 *104:10 *462:B2 12.6929 
3 *104:10 *458:A3 11.4964 
*END

*D_NET *105 0.00783391
*CONN
*I *457:A I *D sky130_fd_sc_hd__nor2_1
*I *518:A1_N I *D sky130_fd_sc_hd__a2bb2o_1
*I *547:B2 I *D sky130_fd_sc_hd__o221a_1
*I *456:Y O *D sky130_fd_sc_hd__inv_2
*CAP
1 *457:A 0.000461527
2 *518:A1_N 3.50319e-05
3 *547:B2 0.000149039
4 *456:Y 8.5468e-05
5 *105:14 0.00163504
6 *105:10 0.00199796
7 *457:A *461:B1 5.47176e-05
8 *457:A *471:A1 9.83442e-05
9 *457:A *471:A2 1.21258e-05
10 *457:A *472:B1 1.06305e-05
11 *457:A *472:B2 0.000120368
12 *457:A *550:A 0.000391248
13 *457:A *175:67 4.0789e-05
14 *547:B2 *517:B 4.95046e-05
15 *547:B2 *109:31 0.000121891
16 *547:B2 *172:57 7.74135e-05
17 *547:B2 *173:53 0.000142226
18 *105:10 *456:A 7.25873e-06
19 *105:10 *461:B1 3.75868e-05
20 *105:10 *550:A 7.58841e-05
21 *105:10 *152:51 3.50949e-06
22 *462:B1 *457:A 0.000219289
23 *471:B1 *457:A 5.33005e-05
24 *518:A2_N *518:A1_N 1.02301e-05
25 *518:B2 *105:14 0.000138672
26 *520:A1 *105:14 0.000221058
27 *520:A2 *105:14 5.51729e-05
28 *520:A3 *105:14 2.24804e-05
29 *547:B1 *547:B2 3.08664e-05
30 *547:C1 *547:B2 0.000107497
31 *46:6 *105:14 1.58163e-05
32 *102:21 *105:14 0.000383412
33 *102:42 *105:14 0.000968552
*RES
1 *456:Y *105:10 15.3714 
2 *105:10 *105:14 23.9286 
3 *105:14 *547:B2 22.9607 
4 *105:14 *518:A1_N 10.0321 
5 *105:10 *457:A 24.1571 
*END

*D_NET *106 0.000536844
*CONN
*I *458:B1 I *D sky130_fd_sc_hd__a31o_1
*I *457:Y O *D sky130_fd_sc_hd__nor2_1
*CAP
1 *458:B1 0.00020916
2 *457:Y 0.00020916
3 *458:B1 *463:B1 7.6997e-05
4 *457:B *458:B1 1.69452e-05
5 *104:10 *458:B1 2.45812e-05
*RES
1 *457:Y *458:B1 30.85 
*END

*D_NET *107 0.00165796
*CONN
*I *463:B1 I *D sky130_fd_sc_hd__a211o_1
*I *458:X O *D sky130_fd_sc_hd__a31o_1
*CAP
1 *463:B1 0.000423403
2 *458:X 0.000423403
3 *463:B1 *463:C1 2.69104e-05
4 *450:A *463:B1 0.000143967
5 *450:B_N *463:B1 0.000220463
6 *457:B *463:B1 0.000124749
7 *458:A2 *463:B1 8.10737e-06
8 *458:A3 *463:B1 1.32293e-05
9 *458:B1 *463:B1 7.6997e-05
10 *100:10 *463:B1 0.000141728
11 *103:6 *463:B1 5.50052e-05
*RES
1 *458:X *463:B1 37.7786 
*END

*D_NET *108 0.0011623
*CONN
*I *460:A I *D sky130_fd_sc_hd__clkbuf_2
*I *459:X O *D sky130_fd_sc_hd__and3b_1
*CAP
1 *460:A 0.000418428
2 *459:X 0.000418428
3 *460:A *439:B 1.46231e-05
4 *460:A *459:C 0.000119279
5 *460:A *155:57 1.08359e-05
6 *460:A *156:82 9.91086e-05
7 *445:A *460:A 8.15939e-05
*RES
1 *459:X *460:A 34.5643 
*END

*D_NET *109 0.011541
*CONN
*I *489:B1 I *D sky130_fd_sc_hd__a32o_1
*I *472:B1 I *D sky130_fd_sc_hd__a2bb2o_1
*I *461:B1 I *D sky130_fd_sc_hd__a2bb2o_1
*I *536:A2 I *D sky130_fd_sc_hd__a2111oi_1
*I *521:A2 I *D sky130_fd_sc_hd__a211o_1
*I *496:B1 I *D sky130_fd_sc_hd__a221o_1
*I *546:A2 I *D sky130_fd_sc_hd__a22oi_1
*I *460:X O *D sky130_fd_sc_hd__clkbuf_2
*CAP
1 *489:B1 9.7088e-06
2 *472:B1 6.04318e-05
3 *461:B1 0.000254873
4 *536:A2 0.000298272
5 *521:A2 0
6 *496:B1 0.000184792
7 *546:A2 0.000336392
8 *460:X 0.00010946
9 *109:78 0.0007945
10 *109:61 0.0008017
11 *109:57 0.000515536
12 *109:33 0.000220623
13 *109:31 0.000955583
14 *109:10 0.000884009
15 *461:B1 *461:B2 3.47641e-06
16 *461:B1 *472:B2 0.00010961
17 *461:B1 *533:A3 5.52302e-05
18 *461:B1 *550:A 8.25118e-05
19 *461:B1 *173:37 5.71472e-05
20 *461:B1 *175:67 0.000570278
21 *472:B1 *462:A1 4.61529e-05
22 *472:B1 *471:A1 0.000137639
23 *472:B1 *472:B2 7.39183e-05
24 *472:B1 *175:67 3.41191e-05
25 *489:B1 *149:31 2.39852e-05
26 *496:B1 *496:A1 9.77118e-05
27 *496:B1 *496:C1 7.20217e-06
28 *496:B1 *170:16 6.59194e-05
29 *496:B1 *170:29 3.04287e-05
30 *496:B1 *172:49 0.000260757
31 *536:A2 *485:A 0.000184198
32 *536:A2 *536:A1 5.52302e-05
33 *536:A2 *152:51 0.000100478
34 *546:A2 *546:A1 6.79581e-05
35 *546:A2 *152:59 7.92229e-06
36 *546:A2 *170:16 5.41794e-05
37 *109:10 *174:36 5.65955e-05
38 *109:31 *172:49 7.69778e-05
39 *109:31 *172:57 2.47319e-05
40 *109:33 *521:A1 1.02132e-05
41 *109:57 *488:B2 0.000159112
42 *109:57 *496:C1 6.8445e-06
43 *109:57 *521:A1 8.0485e-05
44 *109:57 *149:31 1.19299e-05
45 *109:57 *170:45 0.000307758
46 *109:57 *171:66 4.77002e-05
47 *109:61 *485:A 3.50849e-05
48 *109:78 *471:B2 0.000302961
49 *109:78 *487:A2 9.48308e-05
50 *457:A *461:B1 5.47176e-05
51 *457:A *472:B1 1.06305e-05
52 *470:B1 *109:57 1.73088e-05
53 *473:B1 *536:A2 3.28611e-05
54 *473:B1 *109:61 4.3143e-05
55 *488:A2_N *109:57 0.000122696
56 *488:B1 *109:57 0.000182811
57 *521:B1 *109:31 2.55698e-05
58 *522:B1 *496:B1 0.000126658
59 *546:B1 *546:A2 7.80474e-05
60 *546:B2 *546:A2 0.000148259
61 *547:B2 *109:31 0.000121891
62 *547:C1 *109:31 6.53562e-05
63 *582:A *536:A2 9.90431e-05
64 *582:A *109:57 3.32531e-05
65 *79:8 *536:A2 0.000139975
66 *84:31 *536:A2 0.000259203
67 *84:59 *536:A2 0.000274678
68 *89:27 *496:B1 2.83425e-05
69 *89:27 *109:57 0.000221815
70 *89:40 *109:57 0.000564519
71 *89:56 *536:A2 2.78509e-05
72 *94:14 *546:A2 5.7616e-05
73 *105:10 *461:B1 3.75868e-05
*RES
1 *460:X *109:10 15.3714 
2 *109:10 *546:A2 27.9116 
3 *109:10 *109:31 12.2143 
4 *109:31 *109:33 0.732143 
5 *109:33 *496:B1 23.3714 
6 *109:33 *521:A2 9.3 
7 *109:31 *109:57 13.1786 
8 *109:57 *109:61 5.08036 
9 *109:61 *536:A2 22.3089 
10 *109:61 *109:78 7.87593 
11 *109:78 *461:B1 21.8982 
12 *109:78 *472:B1 15.7375 
13 *109:57 *489:B1 9.54107 
*END

*D_NET *110 0.00157968
*CONN
*I *462:C1 I *D sky130_fd_sc_hd__a221o_1
*I *461:X O *D sky130_fd_sc_hd__a2bb2o_1
*CAP
1 *462:C1 0.000481137
2 *461:X 0.000481137
3 *462:C1 *550:A 7.58841e-05
4 *462:C1 *149:14 0.00015531
5 *462:C1 *157:38 8.25341e-06
6 *462:C1 *157:42 7.58841e-05
7 *462:C1 *157:75 0.000277177
8 *458:A1 *462:C1 2.14108e-05
9 *462:B1 *462:C1 3.4846e-06
*RES
1 *461:X *462:C1 36.2964 
*END

*D_NET *111 0.00179846
*CONN
*I *463:C1 I *D sky130_fd_sc_hd__a211o_1
*I *462:X O *D sky130_fd_sc_hd__a221o_1
*CAP
1 *463:C1 0.000541404
2 *462:X 0.000541404
3 *463:C1 *550:C 0
4 *463:C1 *157:38 0.000265633
5 *450:A *463:C1 6.93855e-05
6 *452:A *463:C1 0.000145484
7 *462:B2 *463:C1 5.65955e-05
8 *463:A1 *463:C1 9.66977e-05
9 *463:A2 *463:C1 5.49489e-05
10 *463:B1 *463:C1 2.69104e-05
*RES
1 *462:X *463:C1 39.7964 
*END

*D_NET *112 0.00253878
*CONN
*I *469:A I *D sky130_fd_sc_hd__or2_1
*I *482:A I *D sky130_fd_sc_hd__nor2_1
*I *468:A I *D sky130_fd_sc_hd__nand2_1
*I *464:Y O *D sky130_fd_sc_hd__a21oi_1
*CAP
1 *469:A 4.9232e-05
2 *482:A 6.59972e-05
3 *468:A 0.000116952
4 *464:Y 0.000154207
5 *112:25 0.000215989
6 *112:10 0.000371919
7 *469:A *469:B 5.33005e-05
8 *469:A *475:A3 0.000126771
9 *482:A *469:B 0.000257899
10 *482:A *475:A2 1.47972e-05
11 *482:A *475:A3 9.84174e-05
12 *482:A *475:B1 9.75171e-05
13 *482:A *115:21 5.49995e-05
14 *112:10 *550:C 0.000202842
15 *112:10 *157:10 0.00020455
16 *112:25 *550:C 0.000174445
17 *112:25 *575:A 6.67257e-05
18 *112:25 *157:10 0.000188558
19 *475:A1 *482:A 2.36643e-05
*RES
1 *464:Y *112:10 17.7107 
2 *112:10 *468:A 15.5857 
3 *112:10 *112:25 7.66071 
4 *112:25 *482:A 12.3 
5 *112:25 *469:A 10.6571 
*END

*D_NET *113 0.00128946
*CONN
*I *466:B I *D sky130_fd_sc_hd__xnor2_1
*I *476:B1 I *D sky130_fd_sc_hd__a21o_1
*I *465:X O *D sky130_fd_sc_hd__o21a_1
*CAP
1 *466:B 0.000186941
2 *476:B1 0.000198841
3 *465:X 0
4 *113:4 0.000385782
5 *466:B *148:20 0.000273634
6 *466:B *168:20 0.000185223
7 *94:55 *476:B1 1.40306e-05
8 *94:72 *476:B1 2.22619e-05
9 *94:79 *476:B1 2.27416e-05
*RES
1 *465:X *113:4 9.3 
2 *113:4 *476:B1 12.1036 
3 *113:4 *466:B 24.8 
*END

*D_NET *114 0.000815817
*CONN
*I *467:B I *D sky130_fd_sc_hd__xnor2_1
*I *481:B I *D sky130_fd_sc_hd__and2_1
*I *466:Y O *D sky130_fd_sc_hd__xnor2_1
*CAP
1 *467:B 7.34533e-05
2 *481:B 5.81559e-05
3 *466:Y 0.000139025
4 *114:12 0.000270634
5 *467:B *467:A 9.67754e-05
6 *114:12 *148:14 2.85234e-05
7 *114:12 *168:14 2.28343e-05
8 *114:12 *168:20 0.000126416
*RES
1 *466:Y *114:12 20.7821 
2 *114:12 *481:B 10.2643 
3 *114:12 *467:B 10.6571 
*END

*D_NET *115 0.00174417
*CONN
*I *469:B I *D sky130_fd_sc_hd__or2_1
*I *468:B I *D sky130_fd_sc_hd__nand2_1
*I *482:B I *D sky130_fd_sc_hd__nor2_1
*I *467:Y O *D sky130_fd_sc_hd__xnor2_1
*CAP
1 *469:B 0.000148591
2 *468:B 0.000177019
3 *482:B 0
4 *467:Y 0.000126439
5 *115:21 0.000420166
6 *115:12 0.000220995
7 *468:B *475:A2 1.83136e-05
8 *468:B *475:B1 1.12578e-05
9 *468:B *157:10 0
10 *115:12 *129:10 5.4959e-05
11 *115:21 *475:A2 6.92966e-06
12 *115:21 *475:B1 2.12733e-05
13 *469:A *469:B 5.33005e-05
14 *475:A1 *468:B 0.000172027
15 *482:A *469:B 0.000257899
16 *482:A *115:21 5.49995e-05
*RES
1 *467:Y *115:12 20.8893 
2 *115:12 *482:B 9.3 
3 *115:12 *115:21 1.78571 
4 *115:21 *468:B 21.9964 
5 *115:21 *469:B 12.3 
*END

*D_NET *116 0.00144325
*CONN
*I *475:A2 I *D sky130_fd_sc_hd__a31o_1
*I *468:Y O *D sky130_fd_sc_hd__nand2_1
*CAP
1 *475:A2 0.00055964
2 *468:Y 0.00055964
3 *475:A2 *475:B1 5.53336e-05
4 *475:A2 *129:10 5.50052e-05
5 *468:B *475:A2 1.83136e-05
6 *475:A1 *475:A2 0.000173592
7 *482:A *475:A2 1.47972e-05
8 *115:21 *475:A2 6.92966e-06
*RES
1 *468:Y *475:A2 34.9571 
*END

*D_NET *117 0.000671026
*CONN
*I *475:A3 I *D sky130_fd_sc_hd__a31o_1
*I *469:X O *D sky130_fd_sc_hd__or2_1
*CAP
1 *475:A3 8.94929e-05
2 *469:X 8.94929e-05
3 *475:A3 *157:10 0.000266851
4 *469:A *475:A3 0.000126771
5 *482:A *475:A3 9.84174e-05
*RES
1 *469:X *475:A3 21.6 
*END

*D_NET *118 0.00177114
*CONN
*I *471:B2 I *D sky130_fd_sc_hd__o22a_1
*I *470:Y O *D sky130_fd_sc_hd__a21oi_1
*CAP
1 *471:B2 0.000499108
2 *470:Y 0.000499108
3 *471:B2 *470:A2 2.11419e-05
4 *471:B2 *471:A1 0.000108775
5 *471:B2 *471:A2 0.000136845
6 *471:B2 *489:B2 9.44309e-06
7 *471:B2 *550:A 0.000108085
8 *471:B2 *149:31 1.57506e-05
9 *462:A2 *471:B2 5.66971e-05
10 *470:B1 *471:B2 1.32293e-05
11 *109:78 *471:B2 0.000302961
*RES
1 *470:Y *471:B2 38.443 
*END

*D_NET *119 0.000669228
*CONN
*I *474:A I *D sky130_fd_sc_hd__or3_1
*I *471:X O *D sky130_fd_sc_hd__o22a_1
*CAP
1 *474:A 0.000150092
2 *471:X 0.000150092
3 *474:A *552:A 3.34366e-05
4 *474:A *578:A 0.000128154
5 *474:A *175:67 0.000153047
6 *471:B1 *474:A 4.93118e-06
7 *87:69 *474:A 4.94761e-05
*RES
1 *471:X *474:A 30.9036 
*END

*D_NET *120 0.000677823
*CONN
*I *474:B I *D sky130_fd_sc_hd__or3_1
*I *472:X O *D sky130_fd_sc_hd__a2bb2o_1
*CAP
1 *474:B 0.000143881
2 *472:X 0.000143881
3 *474:B *470:A2 3.79779e-05
4 *474:B *471:A2 1.18494e-05
5 *474:B *474:C 7.83659e-05
6 *474:B *578:A 0.000261867
7 *474:B *168:20 0
*RES
1 *472:X *474:B 31.0643 
*END

*D_NET *121 0.000530175
*CONN
*I *474:C I *D sky130_fd_sc_hd__or3_1
*I *473:X O *D sky130_fd_sc_hd__a32o_1
*CAP
1 *474:C 0.00015231
2 *473:X 0.00015231
3 *474:C *552:A 1.08359e-05
4 *474:C *578:A 2.58997e-05
5 *474:C *163:8 5.52302e-05
6 *474:C *168:20 0
7 *474:B *474:C 7.83659e-05
8 *87:69 *474:C 5.52238e-05
*RES
1 *473:X *474:C 30.6179 
*END

*D_NET *122 0.00259601
*CONN
*I *475:B1 I *D sky130_fd_sc_hd__a31o_1
*I *474:X O *D sky130_fd_sc_hd__or3_1
*CAP
1 *475:B1 0.000588419
2 *474:X 0.000588419
3 *475:B1 *465:A2 0
4 *475:B1 *550:A 6.74911e-05
5 *475:B1 *581:A 5.71472e-05
6 *475:B1 *157:38 0
7 *475:B1 *168:20 0
8 *475:B1 *175:67 0.000167266
9 *468:B *475:B1 1.12578e-05
10 *475:A1 *475:B1 0.00089065
11 *475:A2 *475:B1 5.53336e-05
12 *482:A *475:B1 9.75171e-05
13 *96:12 *475:B1 5.12344e-05
14 *115:21 *475:B1 2.12733e-05
*RES
1 *474:X *475:B1 43.2786 
*END

*D_NET *123 0.000681425
*CONN
*I *477:B I *D sky130_fd_sc_hd__xnor2_1
*I *476:X O *D sky130_fd_sc_hd__a21o_1
*CAP
1 *477:B 0.000181213
2 *476:X 0.000181213
3 *477:B *491:A2 0.000128154
4 *477:B *144:12 6.09773e-05
5 *477:B *170:92 0.000129868
*RES
1 *476:X *477:B 31.0107 
*END

*D_NET *124 0.00163016
*CONN
*I *479:B I *D sky130_fd_sc_hd__or2_1
*I *502:A2 I *D sky130_fd_sc_hd__a21o_1
*I *478:B I *D sky130_fd_sc_hd__nand2_1
*I *477:Y O *D sky130_fd_sc_hd__xnor2_1
*CAP
1 *479:B 8.07928e-05
2 *502:A2 4.42347e-05
3 *478:B 3.72704e-05
4 *477:Y 7.69048e-05
5 *124:21 0.000260281
6 *124:8 0.000249429
7 *479:B *479:A 0.0001269
8 *479:B *484:A 0.000221064
9 *479:B *502:A1 9.41642e-05
10 *479:B *129:14 2.4652e-05
11 *479:B *170:94 8.17274e-05
12 *502:A2 *502:A1 9.84673e-05
13 *502:A2 *129:14 3.46801e-05
14 *124:8 *478:A 4.46186e-06
15 *124:8 *577:A 4.29179e-05
16 *124:21 *478:A 9.47929e-05
17 *124:21 *484:B 5.74242e-05
18 *124:21 *503:A1 0
*RES
1 *477:Y *124:8 15.4429 
2 *124:8 *478:B 14.3357 
3 *124:8 *124:21 7.66071 
4 *124:21 *502:A2 10.675 
5 *124:21 *479:B 12.3 
*END

*D_NET *125 0.000292538
*CONN
*I *480:A I *D sky130_fd_sc_hd__nand2_1
*I *478:Y O *D sky130_fd_sc_hd__nand2_1
*CAP
1 *480:A 0.000133312
2 *478:Y 0.000133312
3 *480:A *478:A 2.08236e-05
4 *480:A *484:A 5.09e-06
*RES
1 *478:Y *480:A 20.9393 
*END

*D_NET *126 0.00353341
*CONN
*I *480:B I *D sky130_fd_sc_hd__nand2_1
*I *503:B1 I *D sky130_fd_sc_hd__o21ai_1
*I *513:C1 I *D sky130_fd_sc_hd__o211ai_2
*I *479:X O *D sky130_fd_sc_hd__or2_1
*CAP
1 *480:B 0.00020521
2 *503:B1 6.99554e-05
3 *513:C1 0.000177415
4 *479:X 0
5 *126:6 0.00100012
6 *126:4 0.000957959
7 *480:B *484:A 5.76979e-05
8 *480:B *491:A2 0
9 *480:B *148:20 7.74141e-05
10 *126:6 *129:10 0.000219292
11 *126:6 *129:14 0.000566216
12 *504:B *503:B1 1.9774e-05
13 *505:B1 *503:B1 0.000121248
14 *513:B1 *513:C1 3.29284e-05
15 *33:8 *126:6 2.81855e-05
*RES
1 *479:X *126:4 9.3 
2 *126:4 *126:6 9.98214 
3 *126:6 *513:C1 11.4964 
4 *126:6 *503:B1 19.9429 
5 *126:4 *480:B 22.425 
*END

*D_NET *127 0.00110923
*CONN
*I *484:A I *D sky130_fd_sc_hd__xnor2_1
*I *480:Y O *D sky130_fd_sc_hd__nand2_1
*CAP
1 *484:A 0.000283333
2 *480:Y 0.000283333
3 *484:A *479:A 2.12647e-05
4 *484:A *483:B 8.67814e-06
5 *484:A *491:A2 4.79864e-05
6 *484:A *129:10 0.000119738
7 *484:A *129:14 6.10411e-05
8 *479:B *484:A 0.000221064
9 *480:A *484:A 5.09e-06
10 *480:B *484:A 5.76979e-05
*RES
1 *480:Y *484:A 33.4929 
*END

*D_NET *128 0.00126076
*CONN
*I *483:A I *D sky130_fd_sc_hd__or2_1
*I *502:B1 I *D sky130_fd_sc_hd__a21o_1
*I *481:X O *D sky130_fd_sc_hd__and2_1
*CAP
1 *483:A 0
2 *502:B1 0.000341377
3 *481:X 0.000273447
4 *128:6 0.000614825
5 *502:B1 *129:14 3.11088e-05
*RES
1 *481:X *128:6 13.9429 
2 *128:6 *502:B1 24.0857 
3 *128:6 *483:A 9.3 
*END

*D_NET *129 0.00344318
*CONN
*I *483:B I *D sky130_fd_sc_hd__or2_1
*I *513:A1 I *D sky130_fd_sc_hd__o211ai_2
*I *503:A1 I *D sky130_fd_sc_hd__o21ai_1
*I *482:Y O *D sky130_fd_sc_hd__nor2_1
*CAP
1 *483:B 0.000108981
2 *513:A1 3.49194e-05
3 *503:A1 0.000173849
4 *482:Y 0.0004532
5 *129:14 0.000371116
6 *129:10 0.000724527
7 *483:B *577:A 4.67916e-05
8 *483:B *170:92 7.74068e-05
9 *503:A1 *172:18 6.91807e-05
10 *129:10 *479:A 1.0484e-05
11 *129:10 *148:14 0.00013519
12 *129:10 *148:20 2.85321e-05
13 *129:14 *502:A1 1.16543e-05
14 *475:A2 *129:10 5.50052e-05
15 *479:B *129:14 2.4652e-05
16 *484:A *483:B 8.67814e-06
17 *484:A *129:10 0.000119738
18 *484:A *129:14 6.10411e-05
19 *502:A2 *129:14 3.46801e-05
20 *502:B1 *129:14 3.11088e-05
21 *33:8 *513:A1 3.49456e-06
22 *33:8 *129:14 1.84865e-05
23 *115:12 *129:10 5.4959e-05
24 *124:21 *503:A1 0
25 *126:6 *129:10 0.000219292
26 *126:6 *129:14 0.000566216
*RES
1 *482:Y *129:10 19.0143 
2 *129:10 *129:14 5.89286 
3 *129:14 *503:A1 21.4964 
4 *129:14 *513:A1 10.0321 
5 *129:10 *483:B 20.55 
*END

*D_NET *130 0.000313659
*CONN
*I *484:B I *D sky130_fd_sc_hd__xnor2_1
*I *483:X O *D sky130_fd_sc_hd__or2_1
*CAP
1 *484:B 7.16255e-05
2 *483:X 7.16255e-05
3 *484:B *478:A 7.96661e-05
4 *484:B *577:A 3.33175e-05
5 *124:21 *484:B 5.74242e-05
*RES
1 *483:X *484:B 29.5464 
*END

*D_NET *131 0.00184738
*CONN
*I *491:A2 I *D sky130_fd_sc_hd__o22a_1
*I *484:Y O *D sky130_fd_sc_hd__xnor2_1
*CAP
1 *491:A2 0.000440151
2 *484:Y 0.000440151
3 *491:A2 *477:A 0.000209255
4 *491:A2 *552:B 1.00073e-05
5 *491:A2 *148:20 0
6 *491:A2 *170:92 0.000434331
7 *477:B *491:A2 0.000128154
8 *480:B *491:A2 0
9 *484:A *491:A2 4.79864e-05
10 *491:A1 *491:A2 1.33343e-05
11 *551:C *491:A2 0.00012401
*RES
1 *484:Y *491:A2 39.1893 
*END

*D_NET *132 0.00165518
*CONN
*I *487:A2 I *D sky130_fd_sc_hd__a31o_1
*I *485:Y O *D sky130_fd_sc_hd__nand2_1
*CAP
1 *487:A2 0.000704608
2 *485:Y 0.000704608
3 *487:A2 *485:B 2.79421e-05
4 *487:A2 *487:A3 2.06112e-05
5 *487:A2 *149:14 1.84865e-05
6 *487:A2 *149:31 1.90936e-05
7 *487:B1 *487:A2 5.67436e-05
8 *102:42 *487:A2 8.25843e-06
9 *109:78 *487:A2 9.48308e-05
*RES
1 *485:Y *487:A2 39.5142 
*END

*D_NET *133 0.00147126
*CONN
*I *487:A3 I *D sky130_fd_sc_hd__a31o_1
*I *490:A2 I *D sky130_fd_sc_hd__a211o_1
*I *486:X O *D sky130_fd_sc_hd__or2_1
*CAP
1 *487:A3 0.000182026
2 *490:A2 0.000168667
3 *486:X 3.54071e-05
4 *133:6 0.000386099
5 *487:A3 *473:A3 4.40513e-06
6 *487:A3 *490:B1 7.58841e-05
7 *487:A3 *490:C1 7.58841e-05
8 *487:A3 *149:37 1.03904e-05
9 *487:A3 *170:35 2.37944e-05
10 *490:A2 *491:B1 5.66943e-05
11 *490:A2 *170:31 1.25366e-05
12 *490:A2 *170:35 1.46689e-05
13 *490:A2 *170:70 9.41642e-05
14 *133:6 *170:70 5.33005e-05
15 *487:A2 *487:A3 2.06112e-05
16 *582:A *487:A3 0.000191864
17 *87:52 *490:A2 5.50052e-05
18 *87:69 *490:A2 9.85599e-06
*RES
1 *486:X *133:6 9.83571 
2 *133:6 *490:A2 20.8 
3 *133:6 *487:A3 22.3714 
*END

*D_NET *134 0.00167122
*CONN
*I *491:B1 I *D sky130_fd_sc_hd__o22a_1
*I *487:X O *D sky130_fd_sc_hd__a31o_1
*CAP
1 *491:B1 0.000518547
2 *487:X 0.000518547
3 *491:B1 *491:B2 0.00031275
4 *491:B1 *170:31 1.75098e-05
5 *491:B1 *170:35 3.25189e-05
6 *491:B1 *170:92 4.038e-06
7 *487:B1 *491:B1 5.35386e-05
8 *488:A2_N *491:B1 7.96727e-05
9 *490:A2 *491:B1 5.66943e-05
10 *89:44 *491:B1 7.74068e-05
11 *92:38 *491:B1 0
12 *92:61 *491:B1 0
*RES
1 *487:X *491:B1 37.8857 
*END

*D_NET *135 0.000472927
*CONN
*I *490:B1 I *D sky130_fd_sc_hd__a211o_1
*I *488:X O *D sky130_fd_sc_hd__a2bb2o_1
*CAP
1 *490:B1 9.3269e-05
2 *488:X 9.3269e-05
3 *490:B1 *490:C1 2.2927e-05
4 *490:B1 *170:31 3.29297e-05
5 *490:B1 *170:35 9.96487e-05
6 *487:A3 *490:B1 7.58841e-05
7 *582:A *490:B1 5.49995e-05
*RES
1 *488:X *490:B1 29.7786 
*END

*D_NET *136 0.00045888
*CONN
*I *490:C1 I *D sky130_fd_sc_hd__a211o_1
*I *489:X O *D sky130_fd_sc_hd__a32o_1
*CAP
1 *490:C1 6.40896e-05
2 *489:X 6.40896e-05
3 *490:C1 *149:37 7.74068e-05
4 *490:C1 *149:50 4.44838e-05
5 *490:C1 *170:70 5.49995e-05
6 *487:A3 *490:C1 7.58841e-05
7 *490:B1 *490:C1 2.2927e-05
8 *87:69 *490:C1 5.49995e-05
*RES
1 *489:X *490:C1 29.7786 
*END

*D_NET *137 0.000951065
*CONN
*I *491:B2 I *D sky130_fd_sc_hd__o22a_1
*I *490:X O *D sky130_fd_sc_hd__a211o_1
*CAP
1 *491:B2 0.000189778
2 *490:X 0.000189778
3 *491:B2 *170:29 9.80173e-05
4 *491:B2 *170:92 0.000160741
5 *491:B1 *491:B2 0.00031275
*RES
1 *490:X *491:B2 32.6179 
*END

*D_NET *138 0.00051957
*CONN
*I *493:B2 I *D sky130_fd_sc_hd__o22a_1
*I *492:Y O *D sky130_fd_sc_hd__a21oi_1
*CAP
1 *493:B2 8.05288e-05
2 *492:Y 8.05288e-05
3 *493:B2 *494:A2 0.000105908
4 *493:B2 *150:23 9.58126e-05
5 *493:B2 *171:36 0.00013833
6 *79:41 *493:B2 1.8461e-05
*RES
1 *492:Y *493:B2 21.1 
*END

*D_NET *139 0.000659073
*CONN
*I *505:A1 I *D sky130_fd_sc_hd__o32a_1
*I *493:X O *D sky130_fd_sc_hd__o22a_1
*CAP
1 *505:A1 0.000143803
2 *493:X 0.000143803
3 *505:A1 *494:A2 1.02936e-05
4 *505:A1 *505:A2 0.000157703
5 *505:A1 *505:A3 1.69115e-05
6 *505:A1 *171:60 7.29633e-05
7 *494:A3 *505:A1 1.33343e-05
8 *79:41 *505:A1 0.000100262
*RES
1 *493:X *505:A1 31.3321 
*END

*D_NET *140 0.000360538
*CONN
*I *505:A2 I *D sky130_fd_sc_hd__o32a_1
*I *494:X O *D sky130_fd_sc_hd__a31o_1
*CAP
1 *505:A2 8.67711e-05
2 *494:X 8.67711e-05
3 *505:A1 *505:A2 0.000157703
4 *79:41 *505:A2 2.92927e-05
*RES
1 *494:X *505:A2 29.475 
*END

*D_NET *141 0.000927252
*CONN
*I *496:C1 I *D sky130_fd_sc_hd__a221o_1
*I *495:Y O *D sky130_fd_sc_hd__nor2_1
*CAP
1 *496:C1 0.000253961
2 *495:Y 0.000253961
3 *496:C1 *521:A1 0.000228508
4 *496:C1 *172:39 5.48781e-05
5 *496:B1 *496:C1 7.20217e-06
6 *522:B1 *496:C1 0.000121897
7 *109:57 *496:C1 6.8445e-06
*RES
1 *495:Y *496:C1 31.8321 
*END

*D_NET *142 0.00179082
*CONN
*I *505:A3 I *D sky130_fd_sc_hd__o32a_1
*I *496:X O *D sky130_fd_sc_hd__a221o_1
*CAP
1 *505:A3 0.000458105
2 *496:X 0.000458105
3 *505:A3 *161:10 0
4 *505:A3 *162:6 5.52238e-05
5 *505:A3 *170:29 0.000138881
6 *505:A3 *171:60 0.000189717
7 *505:A3 *171:64 0.000307885
8 *494:A3 *505:A3 0.000165995
9 *505:A1 *505:A3 1.69115e-05
*RES
1 *496:X *505:A3 37.6357 
*END

*D_NET *143 0.00081563
*CONN
*I *512:A I *D sky130_fd_sc_hd__or2_1
*I *500:A I *D sky130_fd_sc_hd__xnor2_1
*I *497:Y O *D sky130_fd_sc_hd__inv_2
*CAP
1 *512:A 8.42852e-05
2 *500:A 6.15577e-05
3 *497:Y 2.89828e-05
4 *143:6 0.000174826
5 *500:A *580:A 0.000185403
6 *512:A *580:A 0.000126272
7 *512:A *171:12 2.53112e-06
8 *143:6 *580:A 4.08637e-05
9 *501:A *500:A 1.24368e-05
10 *501:A *143:6 9.84729e-05
*RES
1 *497:Y *143:6 10.2464 
2 *143:6 *500:A 11.0679 
3 *143:6 *512:A 20.2464 
*END

*D_NET *144 0.00503947
*CONN
*I *507:B1 I *D sky130_fd_sc_hd__a21o_1
*I *499:B I *D sky130_fd_sc_hd__xor2_1
*I *498:X O *D sky130_fd_sc_hd__o41a_1
*CAP
1 *507:B1 0.000109539
2 *499:B 0.000146681
3 *498:X 0.000968231
4 *144:12 0.00122445
5 *507:B1 *507:A1 5.7661e-06
6 *507:B1 *151:23 4.35048e-05
7 *144:12 *477:A 0.000125724
8 *477:B *144:12 6.09773e-05
9 *498:B1 *144:12 3.5707e-05
10 *529:A2 *507:B1 0
11 *94:55 *507:B1 2.79092e-05
12 *94:55 *144:12 0.00229098
*RES
1 *498:X *144:12 43.0679 
2 *144:12 *499:B 11.4964 
3 *144:12 *507:B1 20.675 
*END

*D_NET *145 0.00164091
*CONN
*I *500:B I *D sky130_fd_sc_hd__xnor2_1
*I *512:B I *D sky130_fd_sc_hd__or2_1
*I *499:X O *D sky130_fd_sc_hd__xor2_1
*CAP
1 *500:B 0.000199615
2 *512:B 0.000155612
3 *499:X 0.000337289
4 *145:8 0.000692516
5 *500:B *580:A 7.62323e-05
6 *145:8 *580:A 0
7 *145:8 *151:10 0
8 *145:8 *151:23 0.000170532
9 *508:B *145:8 9.11365e-06
10 *529:A2 *145:8 0
*RES
1 *499:X *145:8 20.6036 
2 *145:8 *512:B 16.3893 
3 *145:8 *500:B 17.7107 
*END

*D_NET *146 0.00958915
*CONN
*I *432:A2 I *D sky130_fd_sc_hd__a21oi_1
*I *440:A I *D sky130_fd_sc_hd__nor2_1
*I *435:A2 I *D sky130_fd_sc_hd__a32o_1
*I *438:A2 I *D sky130_fd_sc_hd__o21a_1
*I *461:B2 I *D sky130_fd_sc_hd__a2bb2o_1
*I *451:A I *D sky130_fd_sc_hd__or2b_1
*I *431:A2_N I *D sky130_fd_sc_hd__a2bb2o_1
*I *553:X O *D sky130_fd_sc_hd__clkbuf_2
*CAP
1 *432:A2 1.70436e-05
2 *440:A 0
3 *435:A2 0
4 *438:A2 8.47201e-05
5 *461:B2 9.05632e-05
6 *451:A 0.00034434
7 *431:A2_N 4.68129e-05
8 *553:X 0.000995353
9 *146:63 0.000139409
10 *146:43 0.000503472
11 *146:39 0.000331299
12 *146:35 0.000388199
13 *146:18 0.000334514
14 *146:14 0.00111994
15 *431:A2_N *156:22 1.03233e-05
16 *432:A2 *573:A 2.59355e-05
17 *438:A2 *550:A 0.000101545
18 *438:A2 *156:22 5.49544e-05
19 *438:A2 *175:14 4.13122e-06
20 *438:A2 *175:27 6.31564e-05
21 *451:A *451:B_N 8.25843e-06
22 *451:A *174:22 2.13481e-06
23 *461:B2 *550:A 0.000216822
24 *461:B2 *175:67 4.1557e-05
25 *146:14 *430:A 9.87672e-05
26 *146:14 *430:B 0.000237459
27 *146:14 *436:A_N 8.61842e-05
28 *146:14 *436:B 3.18676e-05
29 *146:14 *436:C 0.000349366
30 *146:14 *573:A 0.000333362
31 *146:14 *153:12 0.000276186
32 *146:14 *154:6 0.000665661
33 *146:14 *155:25 0.000226867
34 *146:14 *156:88 0.000228784
35 *146:18 *432:A1 0.000171375
36 *146:35 *432:A1 3.34366e-05
37 *146:35 *156:22 0.000119851
38 *146:35 *175:41 0
39 *146:39 *435:A3 0.00018372
40 *146:39 *156:22 1.24368e-05
41 *146:39 *175:41 4.35567e-05
42 *146:43 *550:A 0.000168939
43 *146:63 *435:A3 5.33005e-05
44 *146:63 *175:31 1.98839e-05
45 result[0] *146:14 0.000146523
46 *432:B1 *432:A2 4.18895e-05
47 *432:B1 *146:14 0.00010096
48 *435:B1 *461:B2 7.05375e-05
49 *435:B1 *146:43 7.83659e-05
50 *437:A *146:14 0.000126639
51 *438:B1 *438:A2 1.53129e-05
52 *440:B *146:35 5.52302e-05
53 *440:B *146:39 8.45664e-05
54 *441:B *146:39 9.60939e-05
55 *441:D *146:39 5.52238e-05
56 *442:A *438:A2 3.08664e-05
57 *461:B1 *461:B2 3.47641e-06
58 *470:B1 *146:35 6.72692e-05
59 *534:B1 *451:A 0.000137357
60 *534:B1 *146:43 4.75812e-05
61 *534:B2 *451:A 9.83442e-05
62 *560:A *146:14 5.71472e-05
63 *80:52 *146:14 1.02821e-05
*RES
1 *553:X *146:14 39.175 
2 *146:14 *146:18 6.75 
3 *146:18 *431:A2_N 14.6616 
4 *146:18 *146:35 7.89286 
5 *146:35 *146:39 4.66071 
6 *146:39 *146:43 6.75 
7 *146:43 *451:A 18.0321 
8 *146:43 *461:B2 16.6571 
9 *146:39 *146:63 0.946429 
10 *146:63 *438:A2 20.7821 
11 *146:63 *435:A2 9.3 
12 *146:35 *440:A 9.3 
13 *146:14 *432:A2 9.83571 
*END

*D_NET *147 0.00654749
*CONN
*I *454:B I *D sky130_fd_sc_hd__nand2_1
*I *455:B I *D sky130_fd_sc_hd__or2_1
*I *465:A2 I *D sky130_fd_sc_hd__o21a_1
*I *447:A_N I *D sky130_fd_sc_hd__nand3b_1
*I *498:A2 I *D sky130_fd_sc_hd__o41a_1
*I *446:B1_N I *D sky130_fd_sc_hd__a21bo_1
*I *554:X O *D sky130_fd_sc_hd__dlymetal6s2s_1
*CAP
1 *454:B 8.97027e-06
2 *455:B 0.000173829
3 *465:A2 0.000131774
4 *447:A_N 0
5 *498:A2 9.76713e-05
6 *446:B1_N 0
7 *554:X 0
8 *147:66 0.000547729
9 *147:27 0.000122021
10 *147:25 0.000328059
11 *147:16 0.000695438
12 *147:4 0.000888432
13 *454:B *454:A 1.87331e-05
14 *455:B *454:A 2.59355e-05
15 *465:A2 *465:A1 0.000127446
16 *465:A2 *175:77 1.02504e-05
17 *498:A2 *447:C 2.53134e-05
18 *498:A2 *498:A1 7.32272e-05
19 *498:A2 *175:77 6.56534e-05
20 *147:16 *550:C 0.000149911
21 *147:25 *175:69 1.74352e-05
22 *147:25 *175:77 9.22103e-06
23 *147:27 *447:C 1.04232e-05
24 *147:27 *498:A1 3.57366e-05
25 *147:66 *454:A 2.24804e-05
26 *147:66 *174:22 0.00029261
27 zero *147:66 0.000167209
28 *446:A2 *147:16 0.000226231
29 *446:A2 *147:25 1.5424e-05
30 *447:B *147:25 2.41233e-05
31 *449:A2 *465:A2 0
32 *450:B_N *147:16 7.70092e-05
33 *452:A *147:16 1.02132e-05
34 *458:A2 *454:B 1.87331e-05
35 *463:A1 *147:16 0.000232269
36 *464:A2 *147:66 0.000246057
37 *464:B1 *147:16 3.71887e-05
38 *475:B1 *465:A2 0
39 *532:A *455:B 0.000100165
40 *554:A *147:66 1.28585e-05
41 *92:82 *498:A2 0.000117621
42 *94:93 *465:A2 8.22527e-05
43 *94:93 *147:25 6.37237e-05
44 *94:93 *147:27 0
45 *95:14 *147:16 0.000143651
46 *98:10 *147:16 9.3171e-05
47 *100:10 *455:B 0.000195856
48 *100:10 *147:66 0.00075356
49 *103:6 *455:B 2.59355e-05
50 *103:6 *147:66 2.59355e-05
*RES
1 *554:X *147:4 9.3 
2 *147:4 *147:16 19.8393 
3 *147:16 *446:B1_N 9.3 
4 *147:16 *147:25 2.60714 
5 *147:25 *147:27 0.732143 
6 *147:27 *498:A2 12.3179 
7 *147:27 *447:A_N 9.3 
8 *147:25 *465:A2 21.3179 
9 *147:4 *147:66 22.6429 
10 *147:66 *455:B 22.3357 
11 *147:66 *454:B 9.72857 
*END

*D_NET *148 0.00636822
*CONN
*I *466:A I *D sky130_fd_sc_hd__xnor2_1
*I *476:A1 I *D sky130_fd_sc_hd__a21o_1
*I *498:A3 I *D sky130_fd_sc_hd__o41a_1
*I *473:A2 I *D sky130_fd_sc_hd__a32o_1
*I *471:A2 I *D sky130_fd_sc_hd__o22a_1
*I *470:A2 I *D sky130_fd_sc_hd__a21oi_1
*I *555:X O *D sky130_fd_sc_hd__clkbuf_2
*CAP
1 *466:A 0
2 *476:A1 0
3 *498:A3 2.86783e-05
4 *473:A2 0
5 *471:A2 0.000502983
6 *470:A2 0.000152474
7 *555:X 0.000491457
8 *148:32 0.000655457
9 *148:30 0.000455186
10 *148:22 0.000581577
11 *148:20 0.00043996
12 *148:14 0.000833705
13 *470:A2 *578:A 0
14 *470:A2 *168:20 1.00887e-05
15 *470:A2 *168:24 0.000124157
16 *470:A2 *168:43 5.50052e-05
17 *471:A2 *471:A1 2.84109e-05
18 *471:A2 *550:A 2.11419e-05
19 *471:A2 *168:20 3.42971e-05
20 *498:A3 *498:A4 6.05161e-06
21 *148:14 *168:14 7.27183e-05
22 *148:14 *168:20 8.61222e-05
23 *148:20 *477:A 0
24 *148:20 *168:20 0
25 *148:22 *168:20 0
26 *148:30 *473:A3 4.40036e-05
27 *148:30 *473:B2 0.000143633
28 *148:30 *477:A 0
29 *148:30 *552:C 7.83462e-05
30 *148:30 *149:50 0
31 *148:30 *168:20 0
32 *457:A *471:A2 1.21258e-05
33 *462:A2 *470:A2 2.11336e-05
34 *466:B *148:20 0.000273634
35 *471:B2 *470:A2 2.11419e-05
36 *471:B2 *471:A2 0.000136845
37 *472:A2_N *470:A2 1.89507e-06
38 *473:B1 *148:30 3.57752e-05
39 *474:B *470:A2 3.79779e-05
40 *474:B *471:A2 1.18494e-05
41 *480:B *148:20 7.74141e-05
42 *491:A1 *148:30 0.000108538
43 *491:A2 *148:20 0
44 *498:B1 *148:22 0.00014209
45 *498:B1 *148:30 9.25014e-06
46 *79:8 *148:30 0.000104236
47 *87:69 *148:30 0.000321021
48 *92:82 *498:A3 1.56e-05
49 *114:12 *148:14 2.85234e-05
50 *129:10 *148:14 0.00013519
51 *129:10 *148:20 2.85321e-05
*RES
1 *555:X *148:14 27.1393 
2 *148:14 *148:20 12.75 
3 *148:20 *148:22 2.25 
4 *148:22 *148:30 15.3393 
5 *148:30 *148:32 4.5 
6 *148:32 *470:A2 16.5857 
7 *148:32 *471:A2 23.6919 
8 *148:30 *473:A2 9.3 
9 *148:22 *498:A3 14.3357 
10 *148:20 *476:A1 13.8 
11 *148:14 *466:A 9.3 
*END

*D_NET *149 0.00928272
*CONN
*I *489:A2 I *D sky130_fd_sc_hd__a32o_1
*I *477:A I *D sky130_fd_sc_hd__xnor2_1
*I *498:A4 I *D sky130_fd_sc_hd__o41a_1
*I *486:B I *D sky130_fd_sc_hd__or2_1
*I *485:B I *D sky130_fd_sc_hd__nand2_1
*I *556:X O *D sky130_fd_sc_hd__clkbuf_2
*CAP
1 *489:A2 0
2 *477:A 0.000361857
3 *498:A4 6.26489e-05
4 *486:B 0.000122764
5 *485:B 3.71574e-05
6 *556:X 0.00115503
7 *149:50 0.000773546
8 *149:37 0.00056604
9 *149:31 0.000331372
10 *149:14 0.00142933
11 *486:B *473:B2 4.9209e-05
12 *486:B *170:70 5.50052e-05
13 *149:14 *435:B2 6.59765e-05
14 *149:14 *451:B_N 0.000454024
15 *149:14 *455:A 5.49995e-05
16 *149:14 *472:B2 9.05561e-05
17 *149:14 *550:A 0
18 *149:14 *152:51 0.000101363
19 *149:14 *157:44 2.19907e-05
20 *149:14 *157:75 2.05413e-05
21 *149:14 *175:10 0.000211629
22 *149:31 *473:A3 9.84729e-05
23 *149:31 *489:B2 6.50939e-05
24 *149:31 *170:45 4.157e-05
25 *149:37 *473:A3 8.62302e-05
26 *149:37 *170:45 5.50074e-05
27 *149:50 *170:31 0
28 *149:50 *170:92 0
29 *458:A1 *149:14 3.12359e-05
30 *462:A2 *149:31 8.25843e-06
31 *462:C1 *149:14 0.00015531
32 *470:B1 *149:31 0.000201379
33 *471:B2 *149:31 1.57506e-05
34 *472:A2_N *149:14 0.000228876
35 *472:A2_N *149:31 1.6815e-05
36 *473:B1 *149:31 1.84366e-05
37 *487:A2 *485:B 2.79421e-05
38 *487:A2 *149:14 1.84865e-05
39 *487:A2 *149:31 1.90936e-05
40 *487:A3 *149:37 1.03904e-05
41 *489:B1 *149:31 2.39852e-05
42 *490:C1 *149:37 7.74068e-05
43 *490:C1 *149:50 4.44838e-05
44 *491:A1 *149:50 0.000104077
45 *491:A2 *477:A 0.000209255
46 *498:A3 *498:A4 6.05161e-06
47 *498:B1 *477:A 9.15186e-06
48 *498:B1 *498:A4 1.40749e-05
49 *552:D *477:A 2.48938e-05
50 *552:D *149:50 0.000170661
51 *559:A *149:14 5.62995e-05
52 *79:8 *149:37 3.20387e-05
53 *79:8 *149:50 0.000138594
54 *92:82 *498:A4 0.000184745
55 *102:42 *485:B 9.58689e-05
56 *102:42 *149:14 0.000890095
57 *109:57 *149:31 1.19299e-05
58 *144:12 *477:A 0.000125724
59 *148:20 *477:A 0
60 *148:30 *477:A 0
61 *148:30 *149:50 0
*RES
1 *556:X *149:14 44.9607 
2 *149:14 *485:B 10.2464 
3 *149:14 *149:31 14.4643 
4 *149:31 *149:37 6.78571 
5 *149:37 *486:B 15.5857 
6 *149:37 *149:50 7.71429 
7 *149:50 *498:A4 15.5679 
8 *149:50 *477:A 21.8179 
9 *149:31 *489:A2 9.3 
*END

*D_NET *150 0.00590288
*CONN
*I *499:A I *D sky130_fd_sc_hd__xor2_1
*I *507:A1 I *D sky130_fd_sc_hd__a21o_1
*I *494:A2 I *D sky130_fd_sc_hd__a31o_1
*I *493:A2 I *D sky130_fd_sc_hd__o22a_1
*I *492:A2 I *D sky130_fd_sc_hd__a21oi_1
*I *557:X O *D sky130_fd_sc_hd__clkbuf_2
*CAP
1 *499:A 8.11086e-05
2 *507:A1 0.000222031
3 *494:A2 0.000124803
4 *493:A2 0
5 *492:A2 1.67135e-05
6 *557:X 0.000256627
7 *150:45 0.00041354
8 *150:23 0.000188646
9 *150:14 0.000702521
10 *150:8 0.000988992
11 *494:A2 *552:B 0.000350641
12 *150:14 *552:B 9.77264e-06
13 *150:14 *579:A 0.000203263
14 *150:14 *167:20 0.000317679
15 *150:23 *493:A1 0.000140088
16 *150:23 *552:B 3.57901e-05
17 *150:23 *171:36 4.4873e-05
18 result[6] *150:8 0
19 *493:B1 *494:A2 0.000141729
20 *493:B2 *494:A2 0.000105908
21 *493:B2 *150:23 9.58126e-05
22 *494:A3 *494:A2 5.71472e-05
23 *505:A1 *494:A2 1.02936e-05
24 *507:B1 *507:A1 5.7661e-06
25 *508:B *499:A 0.000119618
26 *529:A2 *507:A1 0
27 *537:A2 *150:14 5.52302e-05
28 *544:A1 *150:14 2.59355e-05
29 *544:A2 *150:14 0.000137983
30 *544:B1 *150:14 0.000188586
31 *37:8 *507:A1 3.14163e-05
32 *37:12 *499:A 6.0038e-05
33 *37:12 *150:8 0.000564496
34 *37:12 *150:45 0.000175526
35 *79:41 *494:A2 3.03071e-05
*RES
1 *557:X *150:8 20.9071 
2 *150:8 *150:14 16.9643 
3 *150:14 *492:A2 9.72857 
4 *150:14 *150:23 2.17857 
5 *150:23 *493:A2 9.3 
6 *150:23 *494:A2 14.5321 
7 *150:8 *150:45 2.25 
8 *150:45 *507:A1 17.6571 
9 *150:45 *499:A 16.05 
*END

*D_NET *151 0.00768708
*CONN
*I *524:A1 I *D sky130_fd_sc_hd__a21oi_1
*I *516:B I *D sky130_fd_sc_hd__nand2_1
*I *517:B I *D sky130_fd_sc_hd__or2_1
*I *542:A1 I *D sky130_fd_sc_hd__o31a_1
*I *508:A I *D sky130_fd_sc_hd__xor2_1
*I *558:X O *D sky130_fd_sc_hd__clkbuf_2
*CAP
1 *524:A1 0
2 *516:B 6.61286e-05
3 *517:B 0.000260218
4 *542:A1 2.73549e-05
5 *508:A 0
6 *558:X 0.000341983
7 *151:36 0.000834511
8 *151:27 0.000885897
9 *151:23 0.000997357
10 *151:10 0.000988962
11 *517:B *172:57 0.000138381
12 *517:B *173:53 1.97536e-05
13 *151:23 *526:A 0
14 result[7] *151:10 7.89362e-05
15 *507:B1 *151:23 4.35048e-05
16 *508:B *151:10 3.34366e-05
17 *508:B *151:23 0.000512615
18 *524:A2 *151:27 0.000260442
19 *524:B1 *151:27 3.50746e-05
20 *526:B *151:23 8.25578e-05
21 *542:A3 *151:27 2.18844e-05
22 *547:B1 *517:B 6.00106e-05
23 *547:B2 *517:B 4.95046e-05
24 *547:C1 *517:B 7.86132e-05
25 *37:12 *151:23 0.0010413
26 *54:8 *151:23 0.000123471
27 *89:27 *517:B 7.6997e-05
28 *94:14 *151:36 0.000187564
29 *94:27 *542:A1 3.85691e-05
30 *94:27 *151:27 0.000186969
31 *94:27 *151:36 4.4545e-05
32 *94:40 *151:23 0
33 *94:55 *151:23 0
34 *145:8 *151:10 0
35 *145:8 *151:23 0.000170532
*RES
1 *558:X *151:10 25.1036 
2 *151:10 *508:A 9.3 
3 *151:10 *151:23 29.5 
4 *151:23 *151:27 5.375 
5 *151:27 *542:A1 10.0321 
6 *151:27 *151:36 6.28571 
7 *151:36 *517:B 23.3 
8 *151:36 *516:B 10.5232 
9 *151:23 *524:A1 9.3 
*END

*D_NET *152 0.00990302
*CONN
*I *542:A2 I *D sky130_fd_sc_hd__o31a_1
*I *525:A I *D sky130_fd_sc_hd__xnor2_1
*I *533:A2 I *D sky130_fd_sc_hd__a31o_1
*I *530:B I *D sky130_fd_sc_hd__nand2_1
*I *531:B I *D sky130_fd_sc_hd__or2_1
*I *559:X O *D sky130_fd_sc_hd__clkbuf_2
*CAP
1 *542:A2 0.000116721
2 *525:A 0.000326544
3 *533:A2 0
4 *530:B 0
5 *531:B 0
6 *559:X 0.000221379
7 *152:59 0.00163061
8 *152:51 0.00226886
9 *152:28 0.00117644
10 *152:19 0.000273779
11 *152:8 0.000400228
12 *525:A *173:53 3.2033e-05
13 *542:A2 *173:70 8.09765e-05
14 *152:19 *531:A 0.000379607
15 *152:28 *533:A1 3.41517e-06
16 *152:28 *173:31 4.93142e-05
17 *152:28 *173:37 1.47972e-05
18 *152:51 *456:A 5.52501e-05
19 *152:51 *533:A3 4.85049e-06
20 *152:51 *169:14 8.90757e-05
21 *152:51 *173:37 7.15905e-06
22 *152:51 *173:45 0.000153182
23 *152:59 *546:A1 0.000114869
24 *152:59 *173:70 4.15469e-05
25 *532:C *152:19 2.62951e-05
26 *533:B1 *152:19 0.000121842
27 *533:B1 *152:28 5.49489e-05
28 *536:A2 *152:51 0.000100478
29 *541:A *152:59 0.000146846
30 *543:A *152:59 0.000186669
31 *546:A2 *152:59 7.92229e-06
32 *546:B1 *152:59 0.000343956
33 *546:B2 *152:59 0.000286476
34 *547:C1 *152:59 0.000187042
35 *563:A *152:8 0
36 *60:10 *152:19 5.93614e-05
37 *67:12 *152:59 0
38 *79:8 *152:51 0.000102007
39 *80:14 *152:59 0
40 *87:14 *152:59 0.000252082
41 *89:56 *152:59 0.000481581
42 *105:10 *152:51 3.50949e-06
43 *149:14 *152:51 0.000101363
*RES
1 *559:X *152:8 17.5679 
2 *152:8 *531:B 13.8 
3 *152:8 *152:19 9.78571 
4 *152:19 *530:B 9.3 
5 *152:19 *152:28 2.19643 
6 *152:28 *533:A2 9.3 
7 *152:28 *152:51 32.4464 
8 *152:51 *152:59 28.1429 
9 *152:59 *525:A 19.2643 
10 *152:59 *542:A2 16.05 
*END

*D_NET *153 0.00212228
*CONN
*I *540:B I *D sky130_fd_sc_hd__nand2_1
*I *539:B I *D sky130_fd_sc_hd__or2_1
*I *560:X O *D sky130_fd_sc_hd__clkbuf_1
*CAP
1 *540:B 0.00013327
2 *539:B 0
3 *560:X 0.000713074
4 *153:12 0.000846344
5 *540:B *539:A 9.62596e-05
6 *67:12 *540:B 5.71472e-05
7 *80:14 *153:12 0
8 *146:14 *153:12 0.000276186
*RES
1 *560:X *153:12 29.7464 
2 *153:12 *539:B 9.3 
3 *153:12 *540:B 12.3357 
*END

*D_NET *154 0.00904233
*CONN
*I *444:C_N I *D sky130_fd_sc_hd__or3b_4
*I *453:B I *D sky130_fd_sc_hd__nor3b_2
*I *433:B I *D sky130_fd_sc_hd__nor3b_1
*I *434:C I *D sky130_fd_sc_hd__and3_2
*I *439:B I *D sky130_fd_sc_hd__nand3b_4
*I *459:A_N I *D sky130_fd_sc_hd__and3b_1
*I *430:B I *D sky130_fd_sc_hd__or3b_2
*I *436:C I *D sky130_fd_sc_hd__and3b_1
*I *561:X O *D sky130_fd_sc_hd__buf_4
*CAP
1 *444:C_N 0
2 *453:B 6.23245e-05
3 *433:B 0.000214863
4 *434:C 0
5 *439:B 0.000248222
6 *459:A_N 0
7 *430:B 0.000310535
8 *436:C 0.000167438
9 *561:X 0.000218893
10 *154:67 0.000324244
11 *154:58 0.000511788
12 *154:54 0.000674969
13 *154:32 0.000248222
14 *154:30 0.000275223
15 *154:19 0.000428171
16 *154:6 0.000438982
17 *433:B *433:A 0.00020373
18 *433:B *156:67 0.000100968
19 *433:B *174:36 0.000188586
20 *436:C *430:A 8.73498e-05
21 *436:C *155:25 0.000230432
22 *439:B *459:C 0.000310243
23 *453:B *155:73 9.60939e-05
24 *453:B *155:86 4.38128e-05
25 *453:B *155:99 0.000113028
26 *154:19 *459:B 0
27 *154:30 *459:B 0
28 *154:30 *155:57 0
29 *154:54 *170:16 5.41609e-05
30 *154:58 *444:A 9.58126e-05
31 *154:58 *155:64 1.50786e-05
32 *154:58 *156:67 4.30071e-05
33 *154:58 *156:69 0.000169146
34 *154:67 *155:64 1.24368e-05
35 *154:67 *155:73 4.08637e-05
36 *445:A *154:58 1.13883e-05
37 *460:A *439:B 1.46231e-05
38 *562:A *154:19 2.8266e-06
39 *80:14 *436:C 0.000625181
40 *80:14 *154:6 4.88637e-05
41 *80:14 *154:19 4.25523e-05
42 *80:14 *154:30 4.98872e-05
43 *80:14 *154:54 0.000120402
44 *80:52 *436:C 0.00036138
45 *84:10 *453:B 0.000230482
46 *89:14 *439:B 0.000353638
47 *89:14 *154:30 0
48 *89:14 *154:54 0
49 *146:14 *430:B 0.000237459
50 *146:14 *436:C 0.000349366
51 *146:14 *154:6 0.000665661
*RES
1 *561:X *154:6 15.5857 
2 *154:6 *436:C 18.8893 
3 *154:6 *154:19 5.53571 
4 *154:19 *430:B 18.0321 
5 *154:19 *154:30 1.33929 
6 *154:30 *154:32 4.5 
7 *154:32 *459:A_N 9.3 
8 *154:32 *439:B 15.6214 
9 *154:30 *154:54 9.125 
10 *154:54 *154:58 6.19643 
11 *154:58 *434:C 9.3 
12 *154:58 *154:67 0.964286 
13 *154:67 *433:B 23.3536 
14 *154:67 *453:B 12.3179 
15 *154:54 *444:C_N 9.3 
*END

*D_NET *155 0.00594155
*CONN
*I *430:A I *D sky130_fd_sc_hd__or3b_2
*I *429:B I *D sky130_fd_sc_hd__or2_2
*I *443:B I *D sky130_fd_sc_hd__nor2_2
*I *453:A I *D sky130_fd_sc_hd__nor3b_2
*I *433:C_N I *D sky130_fd_sc_hd__nor3b_1
*I *434:B I *D sky130_fd_sc_hd__and3_2
*I *444:B I *D sky130_fd_sc_hd__or3b_4
*I *439:A_N I *D sky130_fd_sc_hd__nand3b_4
*I *436:B I *D sky130_fd_sc_hd__and3b_1
*I *459:B I *D sky130_fd_sc_hd__and3b_1
*I *562:X O *D sky130_fd_sc_hd__buf_2
*CAP
1 *430:A 1.36005e-05
2 *429:B 7.62878e-05
3 *443:B 1.06417e-05
4 *453:A 0
5 *433:C_N 0.000124451
6 *434:B 4.92934e-05
7 *444:B 0
8 *439:A_N 5.40981e-05
9 *436:B 0.000102998
10 *459:B 0.000115714
11 *562:X 4.37674e-06
12 *155:99 0.000299445
13 *155:86 0.00022284
14 *155:73 0.000197376
15 *155:64 0.000247915
16 *155:57 0.000287736
17 *155:33 0.000520015
18 *155:29 0.000588354
19 *155:25 0.000145401
20 *155:8 0.000178172
21 *429:B *156:31 5.71472e-05
22 *429:B *156:40 7.32955e-05
23 *433:C_N *433:A 0.000150632
24 *433:C_N *156:67 5.66157e-05
25 *436:B *156:88 0
26 *443:B *453:C_N 5.7661e-06
27 *443:B *156:22 0
28 *443:B *156:31 0
29 *443:B *156:40 3.99614e-06
30 *155:29 *430:C_N 0
31 *155:29 *156:88 0.000100823
32 *155:57 *156:82 0.000137224
33 *155:57 *156:88 7.6644e-05
34 *155:64 *444:A 5.33005e-05
35 *155:64 *156:67 5.49489e-05
36 *155:64 *156:69 0.000182598
37 *155:73 *156:53 2.59355e-05
38 *155:86 *156:53 2.14757e-05
39 *155:99 *453:C_N 0
40 *155:99 *156:40 5.62995e-05
41 *155:99 *156:53 0.00025609
42 *436:C *430:A 8.73498e-05
43 *436:C *155:25 0.000230432
44 *445:A *434:B 0
45 *445:A *155:64 6.05161e-06
46 *453:B *155:73 9.60939e-05
47 *453:B *155:86 4.38128e-05
48 *453:B *155:99 0.000113028
49 *460:A *155:57 1.08359e-05
50 *562:A *155:25 5.80706e-06
51 *80:52 *436:B 2.34204e-05
52 *84:10 *433:C_N 0
53 *84:10 *155:99 2.27189e-05
54 *89:14 *155:33 0.000269378
55 *102:12 *155:99 5.52302e-05
56 *146:14 *430:A 9.87672e-05
57 *146:14 *436:B 3.18676e-05
58 *146:14 *155:25 0.000226867
59 *154:19 *459:B 0
60 *154:30 *459:B 0
61 *154:30 *155:57 0
62 *154:58 *155:64 1.50786e-05
63 *154:67 *155:64 1.24368e-05
64 *154:67 *155:73 4.08637e-05
*RES
1 *562:X *155:8 14.0768 
2 *155:8 *459:B 15.8268 
3 *155:8 *155:25 7.25893 
4 *155:25 *155:29 6.44643 
5 *155:29 *155:33 9.14286 
6 *155:33 *436:B 19.8714 
7 *155:33 *439:A_N 10.3357 
8 *155:29 *155:57 7.66071 
9 *155:57 *444:B 9.3 
10 *155:57 *155:64 3 
11 *155:64 *434:B 10.3357 
12 *155:64 *155:73 1.35714 
13 *155:73 *433:C_N 20.8536 
14 *155:73 *155:86 0.535714 
15 *155:86 *453:A 9.3 
16 *155:86 *155:99 5.92857 
17 *155:99 *443:B 9.72857 
18 *155:99 *429:B 11.0679 
19 *155:25 *430:A 10.2464 
*END

*D_NET *156 0.00898861
*CONN
*I *433:A I *D sky130_fd_sc_hd__nor3b_1
*I *434:A I *D sky130_fd_sc_hd__and3_2
*I *439:C I *D sky130_fd_sc_hd__nand3b_4
*I *459:C I *D sky130_fd_sc_hd__and3b_1
*I *436:A_N I *D sky130_fd_sc_hd__and3b_1
*I *430:C_N I *D sky130_fd_sc_hd__or3b_2
*I *444:A I *D sky130_fd_sc_hd__or3b_4
*I *453:C_N I *D sky130_fd_sc_hd__nor3b_2
*I *443:A I *D sky130_fd_sc_hd__nor2_2
*I *429:A I *D sky130_fd_sc_hd__or2_2
*I *563:X O *D sky130_fd_sc_hd__buf_4
*CAP
1 *433:A 0.00013935
2 *434:A 0
3 *439:C 0
4 *459:C 0.000112586
5 *436:A_N 4.52645e-05
6 *430:C_N 4.64804e-05
7 *444:A 6.39139e-05
8 *453:C_N 2.03441e-05
9 *443:A 0
10 *429:A 0
11 *563:X 0.000978015
12 *156:108 0.000112586
13 *156:88 0.000317972
14 *156:82 0.000292082
15 *156:69 0.00016546
16 *156:67 0.000261292
17 *156:53 0.000599413
18 *156:40 0.000330618
19 *156:31 0.000151984
20 *156:22 0.00105419
21 *156:22 *573:A 0.000309273
22 *156:22 *158:6 0.000168668
23 *156:22 *175:41 0.000150041
24 *429:B *156:31 5.71472e-05
25 *429:B *156:40 7.32955e-05
26 *431:A2_N *156:22 1.03233e-05
27 *431:B1 *156:22 0.00014285
28 *433:B *433:A 0.00020373
29 *433:B *156:67 0.000100968
30 *433:C_N *433:A 0.000150632
31 *433:C_N *156:67 5.66157e-05
32 *436:B *156:88 0
33 *438:A2 *156:22 5.49544e-05
34 *438:B1 *156:22 5.71472e-05
35 *439:B *459:C 0.000310243
36 *441:C *156:22 9.3111e-05
37 *441:D *156:22 0.000101557
38 *442:A *156:22 8.65014e-05
39 *443:B *453:C_N 5.7661e-06
40 *443:B *156:22 0
41 *443:B *156:31 0
42 *443:B *156:40 3.99614e-06
43 *445:A *444:A 2.4828e-05
44 *460:A *459:C 0.000119279
45 *460:A *156:82 9.91086e-05
46 *92:12 *156:40 4.88637e-05
47 *92:12 *156:53 0.000147596
48 *146:14 *436:A_N 8.61842e-05
49 *146:14 *156:88 0.000228784
50 *146:35 *156:22 0.000119851
51 *146:39 *156:22 1.24368e-05
52 *154:58 *444:A 9.58126e-05
53 *154:58 *156:67 4.30071e-05
54 *154:58 *156:69 0.000169146
55 *155:29 *430:C_N 0
56 *155:29 *156:88 0.000100823
57 *155:57 *156:82 0.000137224
58 *155:57 *156:88 7.6644e-05
59 *155:64 *444:A 5.33005e-05
60 *155:64 *156:67 5.49489e-05
61 *155:64 *156:69 0.000182598
62 *155:73 *156:53 2.59355e-05
63 *155:86 *156:53 2.14757e-05
64 *155:99 *453:C_N 0
65 *155:99 *156:40 5.62995e-05
66 *155:99 *156:53 0.00025609
*RES
1 *563:X *156:22 36.4964 
2 *156:22 *429:A 9.3 
3 *156:22 *156:31 1.78571 
4 *156:31 *443:A 9.3 
5 *156:31 *156:40 2.60714 
6 *156:40 *453:C_N 9.72857 
7 *156:40 *156:53 9.57143 
8 *156:53 *156:67 9.01786 
9 *156:67 *156:69 1.76786 
10 *156:69 *444:A 10.9786 
11 *156:69 *156:82 6.44643 
12 *156:82 *156:88 8.92857 
13 *156:88 *430:C_N 19.0321 
14 *156:88 *436:A_N 10.2464 
15 *156:82 *156:108 4.5 
16 *156:108 *459:C 12.7286 
17 *156:108 *439:C 9.3 
18 *156:67 *434:A 9.3 
19 *156:53 *433:A 17.55 
*END

*D_NET *157 0.00963167
*CONN
*I *454:A I *D sky130_fd_sc_hd__nand2_1
*I *455:A I *D sky130_fd_sc_hd__or2_1
*I *461:A1_N I *D sky130_fd_sc_hd__a2bb2o_1
*I *435:B2 I *D sky130_fd_sc_hd__a32o_1
*I *472:B2 I *D sky130_fd_sc_hd__a2bb2o_1
*I *449:B1 I *D sky130_fd_sc_hd__a21o_1
*I *448:A I *D sky130_fd_sc_hd__and3_1
*I *564:X O *D sky130_fd_sc_hd__clkbuf_2
*CAP
1 *454:A 0.000438879
2 *455:A 0.000156513
3 *461:A1_N 2.90809e-05
4 *435:B2 0.000265021
5 *472:B2 0.000281504
6 *449:B1 7.7099e-05
7 *448:A 0
8 *564:X 0.000536405
9 *157:75 0.000737735
10 *157:44 0.000803812
11 *157:42 0.000280545
12 *157:38 0.00107976
13 *157:12 0.00011733
14 *157:10 0.00117216
15 *435:B2 *451:B_N 0.000224592
16 *435:B2 *550:A 0
17 *435:B2 *175:27 4.13122e-06
18 *461:A1_N *533:A3 9.83388e-05
19 *472:B2 *462:A1 5.33005e-05
20 *157:10 *550:C 0.000177705
21 *157:10 *160:8 5.33005e-05
22 *157:38 *471:A1 1.15916e-05
23 *157:38 *550:A 0
24 *157:38 *550:C 0.000364253
25 *448:B *449:B1 9.55007e-05
26 *448:C *449:B1 0.000132216
27 *454:B *454:A 1.87331e-05
28 *455:B *454:A 2.59355e-05
29 *457:A *472:B2 0.000120368
30 *458:A1 *454:A 7.1959e-05
31 *458:A1 *157:38 2.35419e-05
32 *458:A1 *157:42 3.54498e-05
33 *458:A2 *454:A 0.000100115
34 *458:A3 *454:A 7.92229e-06
35 *461:A2_N *435:B2 5.7903e-06
36 *461:B1 *472:B2 0.00010961
37 *462:A2 *454:A 1.30958e-05
38 *462:B1 *157:38 0.000123352
39 *462:B2 *454:A 1.66994e-05
40 *462:C1 *157:38 8.25341e-06
41 *462:C1 *157:42 7.58841e-05
42 *462:C1 *157:75 0.000277177
43 *463:C1 *157:38 0.000265633
44 *468:B *157:10 0
45 *472:B1 *472:B2 7.39183e-05
46 *475:A1 *449:B1 0
47 *475:A1 *157:10 0
48 *475:A1 *157:38 0
49 *475:A3 *157:10 0.000266851
50 *475:B1 *157:38 0
51 *532:A *455:A 7.57394e-05
52 *536:B1 *461:A1_N 2.84026e-05
53 *536:C1 *435:B2 0
54 *536:C1 *157:75 0
55 *95:14 *157:38 0
56 *102:42 *455:A 1.98839e-05
57 *103:6 *454:A 6.92966e-06
58 *112:10 *157:10 0.00020455
59 *112:25 *157:10 0.000188558
60 *147:66 *454:A 2.24804e-05
61 *149:14 *435:B2 6.59765e-05
62 *149:14 *455:A 5.49995e-05
63 *149:14 *472:B2 9.05561e-05
64 *149:14 *157:44 2.19907e-05
65 *149:14 *157:75 2.05413e-05
*RES
1 *564:X *157:10 25.8536 
2 *157:10 *157:12 0.535714 
3 *157:12 *448:A 13.8 
4 *157:12 *449:B1 16.3179 
5 *157:10 *157:38 13.2321 
6 *157:38 *157:42 5.53571 
7 *157:42 *157:44 0.946429 
8 *157:44 *472:B2 23.0679 
9 *157:44 *157:75 16.1212 
10 *157:75 *435:B2 18.4786 
11 *157:75 *461:A1_N 14.7464 
12 *157:42 *455:A 12.6393 
13 *157:38 *454:A 19.8893 
*END

*D_NET *158 0.0068498
*CONN
*I *550:A I *D sky130_fd_sc_hd__or3_4
*I *573:A I *D sky130_fd_sc_hd__clkbuf_4
*I *442:X O *D sky130_fd_sc_hd__buf_1
*CAP
1 *550:A 0.00105142
2 *573:A 0.00070479
3 *442:X 0.000130462
4 *158:6 0.00188667
5 *550:A *471:A1 5.58875e-06
6 *550:A *175:27 1.37292e-05
7 *550:A *175:67 0
8 *573:A *432:A1 0
9 *573:A *578:A 0.000181746
10 *573:A *175:41 7.71617e-05
11 *432:A2 *573:A 2.59355e-05
12 *432:B1 *573:A 0.000123857
13 *435:B2 *550:A 0
14 *438:A2 *550:A 0.000101545
15 *438:B1 *550:A 7.69776e-06
16 *441:A *573:A 0.000265447
17 *457:A *550:A 0.000391248
18 *461:B1 *550:A 8.25118e-05
19 *461:B2 *550:A 0.000216822
20 *462:B1 *550:A 0
21 *462:C1 *550:A 7.58841e-05
22 *471:A2 *550:A 2.11419e-05
23 *471:B2 *550:A 0.000108085
24 *475:B1 *550:A 6.74911e-05
25 *534:B1 *550:A 1.9419e-05
26 *536:C1 *550:A 0.00023502
27 *105:10 *550:A 7.58841e-05
28 *146:14 *573:A 0.000333362
29 *146:43 *550:A 0.000168939
30 *149:14 *550:A 0
31 *156:22 *573:A 0.000309273
32 *156:22 *158:6 0.000168668
33 *157:38 *550:A 0
*RES
1 *442:X *158:6 11.0679 
2 *158:6 *573:A 33.1929 
3 *158:6 *550:A 40.7286 
*END

*D_NET *159 0.00317103
*CONN
*I *574:A I *D sky130_fd_sc_hd__clkbuf_4
*I *550:B I *D sky130_fd_sc_hd__or3_4
*I *463:X O *D sky130_fd_sc_hd__a211o_1
*CAP
1 *574:A 0.000553484
2 *550:B 0.000353053
3 *463:X 0.000123773
4 *159:8 0.00103031
5 *574:A *174:22 0
6 *450:A *550:B 5.65955e-05
7 *450:B_N *550:B 0.000268749
8 *450:B_N *574:A 6.98302e-05
9 *452:A *550:B 9.99853e-05
10 *463:A2 *159:8 5.33005e-05
11 *464:A2 *550:B 9.22948e-05
12 *464:A2 *574:A 0.00034321
13 *464:B1 *574:A 0
14 *100:10 *550:B 0.000126446
*RES
1 *463:X *159:8 15.1571 
2 *159:8 *550:B 20.8893 
3 *159:8 *574:A 24.8536 
*END

*D_NET *160 0.00339008
*CONN
*I *575:A I *D sky130_fd_sc_hd__clkbuf_4
*I *550:C I *D sky130_fd_sc_hd__or3_4
*I *475:X O *D sky130_fd_sc_hd__a31o_1
*CAP
1 *575:A 0.00044264
2 *550:C 0.000453802
3 *475:X 4.36033e-05
4 *160:8 0.000940045
5 *575:A *174:8 6.8776e-05
6 *450:A *550:C 0
7 *452:A *550:C 5.9483e-05
8 *463:C1 *550:C 0
9 *464:B1 *550:C 9.25681e-05
10 *570:A *575:A 9.99853e-05
11 *112:10 *550:C 0.000202842
12 *112:25 *550:C 0.000174445
13 *112:25 *575:A 6.67257e-05
14 *147:16 *550:C 0.000149911
15 *157:10 *550:C 0.000177705
16 *157:10 *160:8 5.33005e-05
17 *157:38 *550:C 0.000364253
*RES
1 *475:X *160:8 14.3357 
2 *160:8 *550:C 26.1214 
3 *160:8 *575:A 22.2821 
*END

*D_NET *161 0.00492221
*CONN
*I *576:A I *D sky130_fd_sc_hd__clkbuf_4
*I *551:A I *D sky130_fd_sc_hd__or3_4
*I *491:X O *D sky130_fd_sc_hd__o22a_1
*CAP
1 *576:A 0.0018825
2 *551:A 4.57542e-05
3 *491:X 0.000160106
4 *161:10 0.00208836
5 *576:A *577:A 0.000164959
6 *161:10 *577:A 2.61337e-05
7 *161:10 *170:92 0
8 *505:A3 *161:10 0
9 *527:A2 *576:A 0.000163054
10 *527:C1 *576:A 0.000130672
11 *528:A2 *576:A 1.39726e-05
12 *551:C *551:A 9.71197e-05
13 *56:10 *576:A 9.90431e-05
14 *92:82 *161:10 5.05404e-05
*RES
1 *491:X *161:10 16.2821 
2 *161:10 *551:A 14.7464 
3 *161:10 *576:A 40.3536 
*END

*D_NET *162 0.0032683
*CONN
*I *577:A I *D sky130_fd_sc_hd__clkbuf_4
*I *551:B I *D sky130_fd_sc_hd__or3_4
*I *505:X O *D sky130_fd_sc_hd__o32a_1
*CAP
1 *577:A 0.000575743
2 *551:B 0
3 *505:X 0.000240261
4 *162:6 0.000816004
5 *577:A *478:A 0.000263596
6 *577:A *170:92 0.000851013
7 *483:B *577:A 4.67916e-05
8 *484:B *577:A 3.33175e-05
9 *505:A3 *162:6 5.52238e-05
10 *551:C *577:A 9.71197e-05
11 *551:C *162:6 5.52238e-05
12 *576:A *577:A 0.000164959
13 *124:8 *577:A 4.29179e-05
14 *161:10 *577:A 2.61337e-05
*RES
1 *505:X *162:6 13.1214 
2 *162:6 *551:B 9.3 
3 *162:6 *577:A 34.55 
*END

*D_NET *163 0.00711385
*CONN
*I *552:A I *D sky130_fd_sc_hd__nor4_4
*I *578:A I *D sky130_fd_sc_hd__clkbuf_4
*I *522:X O *D sky130_fd_sc_hd__o21a_1
*CAP
1 *552:A 9.42141e-05
2 *578:A 0.000872846
3 *522:X 0.000658571
4 *163:8 0.00162563
5 *552:A *581:A 8.00806e-05
6 *552:A *168:20 0
7 *552:A *175:67 5.06044e-05
8 *578:A *435:A3 0.000338155
9 *578:A *169:18 0.000228482
10 *578:A *173:45 0
11 *578:A *175:41 8.33626e-05
12 *578:A *175:67 0.000283654
13 *163:8 *552:C 9.16173e-05
14 *432:B1 *578:A 1.91418e-05
15 *440:B *578:A 0
16 *441:A *578:A 0.000126342
17 *441:B *578:A 5.2696e-05
18 *470:A2 *578:A 0
19 *470:B1 *578:A 0
20 *472:A2_N *578:A 0.000190142
21 *474:A *552:A 3.34366e-05
22 *474:A *578:A 0.000128154
23 *474:B *578:A 0.000261867
24 *474:C *552:A 1.08359e-05
25 *474:C *578:A 2.58997e-05
26 *474:C *163:8 5.52302e-05
27 *522:A1 *163:8 0.000141132
28 *534:B1 *578:A 2.28159e-05
29 *545:B1 *163:8 0.000521741
30 *573:A *578:A 0.000181746
31 *79:12 *163:8 0.000935455
*RES
1 *522:X *163:8 29.5321 
2 *163:8 *578:A 35.7821 
3 *163:8 *552:A 16.3536 
*END

*D_NET *164 0.00530147
*CONN
*I *552:B I *D sky130_fd_sc_hd__nor4_4
*I *579:A I *D sky130_fd_sc_hd__clkbuf_4
*I *537:Y O *D sky130_fd_sc_hd__o21ai_1
*CAP
1 *552:B 0.00127916
2 *579:A 0.000454365
3 *537:Y 0
4 *164:4 0.00173353
5 *552:B *493:A1 9.76798e-05
6 *552:B *167:20 0.000174727
7 *579:A *167:20 7.43578e-06
8 *491:A1 *552:B 1.74352e-05
9 *491:A2 *552:B 1.00073e-05
10 *494:A2 *552:B 0.000350641
11 *494:A3 *552:B 3.0166e-05
12 *494:B1 *552:B 0.000225616
13 *544:A1 *579:A 5.33005e-05
14 *544:B1 *579:A 0.000102207
15 *551:C *552:B 0.00018184
16 *552:D *552:B 0.000139907
17 *92:82 *552:B 0.000194629
18 *150:14 *552:B 9.77264e-06
19 *150:14 *579:A 0.000203263
20 *150:23 *552:B 3.57901e-05
*RES
1 *537:Y *164:4 9.3 
2 *164:4 *579:A 17.2286 
3 *164:4 *552:B 31.0857 
*END

*D_NET *165 0.00833801
*CONN
*I *552:C I *D sky130_fd_sc_hd__nor4_4
*I *580:A I *D sky130_fd_sc_hd__clkbuf_4
*I *549:Y O *D sky130_fd_sc_hd__a21oi_1
*CAP
1 *552:C 0.000825938
2 *580:A 0.00112477
3 *549:Y 7.3547e-05
4 *165:8 0.00202425
5 *552:C *167:20 0.000650642
6 *552:C *168:20 5.26277e-05
7 *492:B1 *552:C 0.00019155
8 *492:B1 *165:8 5.52238e-05
9 *500:A *580:A 0.000185403
10 *500:B *580:A 7.62323e-05
11 *512:A *580:A 0.000126272
12 *522:A1 *552:C 0.000218938
13 *522:B1 *552:C 9.58181e-05
14 *523:B1 *580:A 0
15 *527:B1 *580:A 0
16 *529:A2 *580:A 0.000141366
17 *544:B1 *580:A 0
18 *545:A1 *580:A 5.33005e-05
19 *545:A3 *580:A 1.39841e-05
20 *545:B1 *552:C 9.76435e-06
21 *545:B1 *580:A 7.12661e-05
22 *545:B1 *165:8 0.000103033
23 *549:A1 *552:C 1.33343e-05
24 *549:A1 *580:A 0.000389409
25 *549:A2 *580:A 5.71472e-05
26 *40:10 *580:A 0.000117398
27 *55:16 *580:A 0.000409896
28 *56:10 *580:A 9.9201e-05
29 *79:12 *552:C 0.000946873
30 *94:40 *580:A 0
31 *94:55 *580:A 0
32 *143:6 *580:A 4.08637e-05
33 *145:8 *580:A 0
34 *148:30 *552:C 7.83462e-05
35 *163:8 *552:C 9.16173e-05
*RES
1 *549:Y *165:8 11.2821 
2 *165:8 *580:A 43.6393 
3 *165:8 *552:C 38.4429 
*END

*D_NET *166 0.00133247
*CONN
*I *581:A I *D sky130_fd_sc_hd__buf_6
*I *552:Y O *D sky130_fd_sc_hd__nor4_4
*CAP
1 *581:A 0.000557579
2 *552:Y 0.000557579
3 *581:A *175:67 8.00806e-05
4 *475:B1 *581:A 5.71472e-05
5 *552:A *581:A 8.00806e-05
*RES
1 *552:Y *581:A 36.6 
*END

*D_NET *167 0.00327493
*CONN
*I *537:B1 I *D sky130_fd_sc_hd__o21ai_1
*I *582:X O *D sky130_fd_sc_hd__clkbuf_1
*CAP
1 *537:B1 0
2 *582:X 0.000803218
3 *167:20 0.000803218
4 *167:20 *171:36 1.62621e-05
5 *167:20 *171:64 0.000375931
6 *493:B1 *167:20 7.61528e-05
7 *548:C1 *167:20 0
8 *552:B *167:20 0.000174727
9 *552:C *167:20 0.000650642
10 *579:A *167:20 7.43578e-06
11 *79:41 *167:20 2.61337e-05
12 *87:44 *167:20 2.35313e-05
13 *150:14 *167:20 0.000317679
*RES
1 *582:X *167:20 43.5143 
2 *167:20 *537:B1 9.3 
*END

*D_NET *168 0.0107724
*CONN
*I *467:A I *D sky130_fd_sc_hd__xnor2_1
*I *481:A I *D sky130_fd_sc_hd__and2_1
*I *473:A1 I *D sky130_fd_sc_hd__a32o_1
*I *470:A1 I *D sky130_fd_sc_hd__a21oi_1
*I *471:A1 I *D sky130_fd_sc_hd__o22a_1
*I *472:A1_N I *D sky130_fd_sc_hd__a2bb2o_1
*I *462:A1 I *D sky130_fd_sc_hd__a221o_1
*I *489:B2 I *D sky130_fd_sc_hd__a32o_1
*I *565:X O *D sky130_fd_sc_hd__buf_2
*CAP
1 *467:A 7.24243e-05
2 *481:A 0
3 *473:A1 0
4 *470:A1 0
5 *471:A1 0.000362134
6 *472:A1_N 0
7 *462:A1 0.000168016
8 *489:B2 0.00016415
9 *565:X 0.00196024
10 *168:100 7.24243e-05
11 *168:47 0.000240038
12 *168:43 0.000497223
13 *168:39 0.000104918
14 *168:24 0.000280601
15 *168:20 0.00108469
16 *168:14 0.00297033
17 *168:14 *171:12 5.49995e-05
18 *168:14 *172:18 0.000271977
19 *168:20 *465:A1 6.07328e-05
20 *168:20 *175:67 0
21 *168:20 *175:77 5.57039e-05
22 result[4] *168:14 1.73845e-05
23 *457:A *471:A1 9.83442e-05
24 *462:A2 *462:A1 0.000368952
25 *462:A2 *168:39 3.01245e-06
26 *462:A2 *168:43 8.10737e-06
27 *462:A2 *168:47 6.3629e-05
28 *462:B1 *471:A1 3.42301e-05
29 *462:B2 *462:A1 7.62942e-05
30 *462:B2 *471:A1 7.11278e-06
31 *466:B *168:20 0.000185223
32 *467:B *467:A 9.67754e-05
33 *470:A2 *168:20 1.00887e-05
34 *470:A2 *168:24 0.000124157
35 *470:A2 *168:43 5.50052e-05
36 *470:B1 *489:B2 3.09985e-05
37 *470:B1 *168:47 0
38 *471:A2 *471:A1 2.84109e-05
39 *471:A2 *168:20 3.42971e-05
40 *471:B2 *471:A1 0.000108775
41 *471:B2 *489:B2 9.44309e-06
42 *472:A2_N *462:A1 2.12647e-05
43 *472:A2_N *471:A1 0.000137639
44 *472:A2_N *168:47 9.58689e-05
45 *472:B1 *462:A1 4.61529e-05
46 *472:B1 *471:A1 0.000137639
47 *472:B2 *462:A1 5.33005e-05
48 *473:B1 *489:B2 5.66943e-05
49 *474:B *168:20 0
50 *474:C *168:20 0
51 *475:B1 *168:20 0
52 *550:A *471:A1 5.58875e-06
53 *552:A *168:20 0
54 *552:C *168:20 5.26277e-05
55 *79:8 *168:20 0
56 *114:12 *168:14 2.28343e-05
57 *114:12 *168:20 0.000126416
58 *148:14 *168:14 7.27183e-05
59 *148:14 *168:20 8.61222e-05
60 *148:20 *168:20 0
61 *148:22 *168:20 0
62 *148:30 *168:20 0
63 *149:31 *489:B2 6.50939e-05
64 *157:38 *471:A1 1.15916e-05
*RES
1 *565:X *168:14 41.0679 
2 *168:14 *168:20 20.2143 
3 *168:20 *168:24 6.14286 
4 *168:24 *489:B2 20.8 
5 *168:24 *168:39 0.535714 
6 *168:39 *168:43 1.375 
7 *168:43 *168:47 2.08929 
8 *168:47 *462:A1 14.9429 
9 *168:47 *472:A1_N 9.3 
10 *168:43 *471:A1 25.675 
11 *168:39 *470:A1 9.3 
12 *168:20 *473:A1 13.8 
13 *168:14 *168:100 4.5 
14 *168:100 *481:A 9.3 
15 *168:100 *467:A 10.6571 
*END

*D_NET *169 0.00890956
*CONN
*I *473:A3 I *D sky130_fd_sc_hd__a32o_1
*I *489:A3 I *D sky130_fd_sc_hd__a32o_1
*I *456:A I *D sky130_fd_sc_hd__inv_2
*I *533:A3 I *D sky130_fd_sc_hd__a31o_1
*I *435:A3 I *D sky130_fd_sc_hd__a32o_1
*I *572:X O *D sky130_fd_sc_hd__clkbuf_2
*CAP
1 *473:A3 0.00045966
2 *489:A3 0
3 *456:A 9.5492e-05
4 *533:A3 0.000216489
5 *435:A3 0.000182322
6 *572:X 0.000370896
7 *169:57 0.000618748
8 *169:18 0.000490919
9 *169:14 0.000455529
10 *169:10 0.000797913
11 *435:A3 *435:A1 0
12 *435:A3 *175:31 0.000191194
13 *435:A3 *175:41 2.44318e-05
14 *435:A3 *175:67 0.000290789
15 *473:A3 *473:B2 1.98839e-05
16 *533:A3 *533:A1 1.30765e-05
17 *533:A3 *173:37 0.000433334
18 *169:10 *174:36 0.000363837
19 *169:14 *173:45 0.000388036
20 *169:18 *175:67 0.000237909
21 *440:B *435:A3 0
22 *461:A1_N *533:A3 9.83388e-05
23 *461:B1 *533:A3 5.52302e-05
24 *473:B1 *473:A3 0.000239559
25 *487:A1 *169:57 0.000144139
26 *487:A3 *473:A3 4.40513e-06
27 *534:B1 *435:A3 2.49484e-05
28 *536:B1 *533:A3 3.02232e-05
29 *536:C1 *533:A3 0.000242544
30 *578:A *435:A3 0.000338155
31 *578:A *169:18 0.000228482
32 *582:A *169:10 0.000135243
33 *582:A *169:57 0.000104487
34 *79:8 *473:A3 9.06147e-05
35 *79:8 *169:10 0.000331273
36 *79:8 *169:57 0.000374845
37 *84:25 *169:14 0.000178503
38 *87:14 *169:10 0
39 *87:69 *473:A3 1.59479e-05
40 *105:10 *456:A 7.25873e-06
41 *146:39 *435:A3 0.00018372
42 *146:63 *435:A3 5.33005e-05
43 *148:30 *473:A3 4.40036e-05
44 *149:31 *473:A3 9.84729e-05
45 *149:37 *473:A3 8.62302e-05
46 *152:51 *456:A 5.52501e-05
47 *152:51 *533:A3 4.85049e-06
48 *152:51 *169:14 8.90757e-05
*RES
1 *572:X *169:10 21.5857 
2 *169:10 *169:14 10.7857 
3 *169:14 *169:18 7.66071 
4 *169:18 *435:A3 20.7821 
5 *169:18 *533:A3 20.675 
6 *169:14 *456:A 11.0679 
7 *169:10 *169:57 4.98214 
8 *169:57 *489:A3 13.8 
9 *169:57 *473:A3 30.0679 
*END

*D_NET *170 0.0145306
*CONN
*I *479:A I *D sky130_fd_sc_hd__or2_1
*I *478:A I *D sky130_fd_sc_hd__nand2_1
*I *502:A1 I *D sky130_fd_sc_hd__a21o_1
*I *473:B2 I *D sky130_fd_sc_hd__a32o_1
*I *486:A I *D sky130_fd_sc_hd__or2_1
*I *488:A1_N I *D sky130_fd_sc_hd__a2bb2o_1
*I *489:A1 I *D sky130_fd_sc_hd__a32o_1
*I *485:A I *D sky130_fd_sc_hd__nand2_1
*I *496:B2 I *D sky130_fd_sc_hd__a221o_1
*I *566:X O *D sky130_fd_sc_hd__buf_2
*CAP
1 *479:A 0.000182095
2 *478:A 0.000149184
3 *502:A1 0.000161751
4 *473:B2 8.43027e-05
5 *486:A 0
6 *488:A1_N 0
7 *489:A1 0
8 *485:A 7.23436e-05
9 *496:B2 2.39984e-05
10 *566:X 0.00164844
11 *170:94 0.00038599
12 *170:92 0.000856753
13 *170:70 0.000163236
14 *170:45 0.000194291
15 *170:35 0.000199922
16 *170:31 0.000208265
17 *170:29 0.00111141
18 *170:16 0.00213289
19 *170:16 *547:A1 0
20 *170:16 *172:49 1.21258e-05
21 *170:29 *496:A1 1.02911e-05
22 *473:A3 *473:B2 1.98839e-05
23 *473:B1 *473:B2 9.84729e-05
24 *477:B *170:92 0.000129868
25 *479:B *479:A 0.0001269
26 *479:B *502:A1 9.41642e-05
27 *479:B *170:94 8.17274e-05
28 *480:A *478:A 2.08236e-05
29 *483:B *170:92 7.74068e-05
30 *484:A *479:A 2.12647e-05
31 *484:B *478:A 7.96661e-05
32 *486:B *473:B2 4.9209e-05
33 *486:B *170:70 5.50052e-05
34 *487:A3 *170:35 2.37944e-05
35 *488:A2_N *170:35 4.27842e-06
36 *490:A2 *170:31 1.25366e-05
37 *490:A2 *170:35 1.46689e-05
38 *490:A2 *170:70 9.41642e-05
39 *490:B1 *170:31 3.29297e-05
40 *490:B1 *170:35 9.96487e-05
41 *490:C1 *170:70 5.49995e-05
42 *491:A2 *170:92 0.000434331
43 *491:B1 *170:31 1.75098e-05
44 *491:B1 *170:35 3.25189e-05
45 *491:B1 *170:92 4.038e-06
46 *491:B2 *170:29 9.80173e-05
47 *491:B2 *170:92 0.000160741
48 *496:A2 *170:29 0.0001715
49 *496:B1 *170:16 6.59194e-05
50 *496:B1 *170:29 3.04287e-05
51 *502:A2 *502:A1 9.84673e-05
52 *505:A3 *170:29 0.000138881
53 *536:A2 *485:A 0.000184198
54 *546:A2 *170:16 5.41794e-05
55 *549:B1 *170:16 0.000506863
56 *551:C *170:92 2.72449e-05
57 *552:D *170:92 1.00375e-05
58 *577:A *478:A 0.000263596
59 *577:A *170:92 0.000851013
60 *582:A *170:45 7.93713e-05
61 *79:8 *485:A 0.000217161
62 *80:14 *170:16 0
63 *87:52 *170:29 0.00011688
64 *87:69 *473:B2 0.000114159
65 *87:69 *170:29 5.52238e-05
66 *87:69 *170:70 7.62628e-05
67 *89:14 *170:16 0.000500316
68 *89:27 *170:16 0.000329048
69 *92:82 *170:92 0.000126439
70 *94:14 *170:16 0.000165657
71 *109:57 *170:45 0.000307758
72 *109:61 *485:A 3.50849e-05
73 *124:8 *478:A 4.46186e-06
74 *124:21 *478:A 9.47929e-05
75 *129:10 *479:A 1.0484e-05
76 *129:14 *502:A1 1.16543e-05
77 *133:6 *170:70 5.33005e-05
78 *148:30 *473:B2 0.000143633
79 *149:31 *170:45 4.157e-05
80 *149:37 *170:45 5.50074e-05
81 *149:50 *170:31 0
82 *149:50 *170:92 0
83 *154:54 *170:16 5.41609e-05
84 *161:10 *170:92 0
*RES
1 *566:X *170:16 47.5545 
2 *170:16 *496:B2 9.72857 
3 *170:16 *170:29 13.6741 
4 *170:29 *170:31 1.03571 
5 *170:31 *170:35 6.44643 
6 *170:35 *170:45 4.11607 
7 *170:45 *485:A 21.1571 
8 *170:45 *489:A1 9.3 
9 *170:35 *488:A1_N 9.3 
10 *170:31 *170:70 6.67857 
11 *170:70 *486:A 9.3 
12 *170:70 *473:B2 12.3179 
13 *170:29 *170:92 22.5893 
14 *170:92 *170:94 0.946429 
15 *170:94 *502:A1 11.4786 
16 *170:94 *478:A 22.6393 
17 *170:92 *479:A 11.9071 
*END

*D_NET *171 0.0089663
*CONN
*I *497:A I *D sky130_fd_sc_hd__inv_2
*I *494:A1 I *D sky130_fd_sc_hd__a31o_1
*I *488:B2 I *D sky130_fd_sc_hd__a2bb2o_1
*I *521:A1 I *D sky130_fd_sc_hd__a211o_1
*I *495:A I *D sky130_fd_sc_hd__nor2_1
*I *493:A1 I *D sky130_fd_sc_hd__o22a_1
*I *492:A1 I *D sky130_fd_sc_hd__a21oi_1
*I *567:X O *D sky130_fd_sc_hd__clkbuf_2
*CAP
1 *497:A 0
2 *494:A1 0
3 *488:B2 0.000107233
4 *521:A1 0.000112168
5 *495:A 0
6 *493:A1 3.44291e-05
7 *492:A1 0
8 *567:X 0.000161891
9 *171:66 0.000148263
10 *171:64 0.0004002
11 *171:60 0.000644587
12 *171:36 0.000325561
13 *171:24 0.00159543
14 *171:12 0.00107847
15 *171:24 *172:39 0.000621268
16 *171:36 *172:39 7.83659e-05
17 *171:60 *172:39 0
18 *488:B1 *488:B2 0.000182811
19 *493:B2 *171:36 0.00013833
20 *494:A3 *171:64 7.453e-05
21 *496:C1 *521:A1 0.000228508
22 *501:A *171:24 0.00024576
23 *504:B *171:24 0.00024938
24 *505:A1 *171:60 7.29633e-05
25 *505:A3 *171:60 0.000189717
26 *505:A3 *171:64 0.000307885
27 *505:B1 *171:24 3.14963e-05
28 *505:B2 *171:60 2.23592e-05
29 *512:A *171:12 2.53112e-06
30 *522:A2 *171:24 2.49484e-05
31 *522:A2 *171:36 2.15859e-05
32 *552:B *493:A1 9.76798e-05
33 *582:A *488:B2 0.000354016
34 *582:A *521:A1 8.48678e-06
35 *32:6 *171:24 0.00031534
36 *79:41 *171:24 1.6603e-05
37 *79:41 *171:36 1.9774e-05
38 *79:41 *171:64 3.6572e-05
39 *79:43 *171:60 7.32756e-05
40 *87:44 *171:64 1.42249e-05
41 *109:33 *521:A1 1.02132e-05
42 *109:57 *488:B2 0.000159112
43 *109:57 *521:A1 8.0485e-05
44 *109:57 *171:66 4.77002e-05
45 *150:23 *493:A1 0.000140088
46 *150:23 *171:36 4.4873e-05
47 *167:20 *171:36 1.62621e-05
48 *167:20 *171:64 0.000375931
49 *168:14 *171:12 5.49995e-05
*RES
1 *567:X *171:12 20.7821 
2 *171:12 *171:24 26.0893 
3 *171:24 *171:36 17.75 
4 *171:36 *492:A1 9.3 
5 *171:36 *493:A1 10.6571 
6 *171:24 *171:60 15.0179 
7 *171:60 *171:64 11.6071 
8 *171:64 *171:66 0.946429 
9 *171:66 *495:A 9.3 
10 *171:66 *521:A1 12.7464 
11 *171:64 *488:B2 14.1036 
12 *171:60 *494:A1 13.8 
13 *171:12 *497:A 9.3 
*END

*D_NET *172 0.0100022
*CONN
*I *496:A1 I *D sky130_fd_sc_hd__a221o_1
*I *516:A I *D sky130_fd_sc_hd__nand2_1
*I *517:A I *D sky130_fd_sc_hd__or2_1
*I *536:A1 I *D sky130_fd_sc_hd__a2111oi_1
*I *519:A1_N I *D sky130_fd_sc_hd__a2bb2o_1
*I *506:A I *D sky130_fd_sc_hd__inv_2
*I *568:X O *D sky130_fd_sc_hd__clkbuf_2
*CAP
1 *496:A1 0.000112595
2 *516:A 4.13695e-05
3 *517:A 0
4 *536:A1 0.000296603
5 *519:A1_N 0
6 *506:A 4.06461e-05
7 *568:X 0.000628473
8 *172:61 0.000578175
9 *172:57 0.000551144
10 *172:49 0.000688985
11 *172:39 0.00112402
12 *172:18 0.0013025
13 *536:A1 *173:53 4.51148e-05
14 *172:57 *173:53 7.18353e-06
15 *172:61 *173:53 0.000364604
16 *493:B1 *172:39 0
17 *496:B1 *496:A1 9.77118e-05
18 *496:B1 *172:49 0.000260757
19 *496:C1 *172:39 5.48781e-05
20 *503:A1 *172:18 6.91807e-05
21 *503:A2 *172:18 0.00015018
22 *504:B *172:18 0.000127687
23 *505:B1 *172:18 0.000119272
24 *517:B *172:57 0.000138381
25 *519:A2_N *536:A1 5.66971e-05
26 *519:A2_N *172:61 5.50052e-05
27 *520:B1 *172:61 2.6913e-05
28 *522:A2 *506:A 6.05161e-06
29 *522:A2 *172:39 0.000894144
30 *522:B1 *172:39 0.00019517
31 *536:A2 *536:A1 5.52302e-05
32 *547:B2 *172:57 7.74135e-05
33 *582:A *536:A1 6.42095e-05
34 *46:6 *516:A 9.83388e-05
35 *84:16 *536:A1 2.12647e-05
36 *84:16 *172:61 0.000107363
37 *87:52 *496:A1 3.47793e-05
38 *89:56 *536:A1 0.000414458
39 *109:31 *172:49 7.69778e-05
40 *109:31 *172:57 2.47319e-05
41 *168:14 *172:18 0.000271977
42 *170:16 *172:49 1.21258e-05
43 *170:29 *496:A1 1.02911e-05
44 *171:24 *172:39 0.000621268
45 *171:36 *172:39 7.83659e-05
46 *171:60 *172:39 0
*RES
1 *568:X *172:18 31.6571 
2 *172:18 *506:A 9.83571 
3 *172:18 *172:39 25.625 
4 *172:39 *172:49 11.3036 
5 *172:49 *172:57 8.75 
6 *172:57 *172:61 7.42857 
7 *172:61 *519:A1_N 9.3 
8 *172:61 *536:A1 25.2107 
9 *172:57 *517:A 9.3 
10 *172:49 *516:A 14.7464 
11 *172:39 *496:A1 11.0857 
*END

*D_NET *173 0.0129567
*CONN
*I *530:A I *D sky130_fd_sc_hd__nand2_1
*I *533:A1 I *D sky130_fd_sc_hd__a31o_1
*I *535:A I *D sky130_fd_sc_hd__nor2_1
*I *519:B2 I *D sky130_fd_sc_hd__a2bb2o_1
*I *538:B I *D sky130_fd_sc_hd__and2b_1
*I *526:A I *D sky130_fd_sc_hd__xor2_1
*I *546:A1 I *D sky130_fd_sc_hd__a22oi_1
*I *531:A I *D sky130_fd_sc_hd__or2_1
*I *569:X O *D sky130_fd_sc_hd__buf_2
*CAP
1 *530:A 0
2 *533:A1 9.25069e-06
3 *535:A 5.80311e-06
4 *519:B2 0
5 *538:B 0
6 *526:A 0.000207921
7 *546:A1 0.000432015
8 *531:A 0.000284386
9 *569:X 0.000181336
10 *173:70 0.00063988
11 *173:53 0.00236539
12 *173:45 0.00184287
13 *173:37 0.00106173
14 *173:31 0.000884421
15 *173:27 0.0001607
16 *173:10 0.000465722
17 *173:53 *547:A1 0.000136733
18 *440:B *173:45 8.6229e-06
19 *461:B1 *173:37 5.71472e-05
20 *472:A2_N *173:45 0.000188762
21 *517:B *173:53 1.97536e-05
22 *525:A *173:53 3.2033e-05
23 *526:B *526:A 8.15939e-05
24 *532:B *531:A 0.000194833
25 *533:A3 *533:A1 1.30765e-05
26 *533:A3 *173:37 0.000433334
27 *533:B1 *173:31 5.49489e-05
28 *536:A1 *173:53 4.51148e-05
29 *536:C1 *535:A 5.52302e-05
30 *536:C1 *173:37 7.47136e-05
31 *538:A_N *526:A 3.06035e-05
32 *541:A *546:A1 4.88637e-05
33 *541:B *546:A1 0.000177815
34 *542:A2 *173:70 8.09765e-05
35 *543:A *546:A1 2.65105e-05
36 *546:A2 *546:A1 6.79581e-05
37 *546:B1 *546:A1 5.25194e-05
38 *547:B1 *173:53 2.4546e-05
39 *547:B2 *173:53 0.000142226
40 *548:A1 *173:53 3.81843e-05
41 *548:C1 *173:53 0.000184503
42 *548:C1 *173:70 0
43 *578:A *173:45 0
44 *60:10 *531:A 4.85049e-06
45 *67:12 *546:A1 0
46 *71:8 *173:70 0.000123142
47 *84:16 *173:45 3.11088e-05
48 *84:16 *173:53 3.80459e-05
49 *84:25 *173:45 5.89582e-05
50 *89:56 *173:37 0
51 *94:40 *526:A 0.000177948
52 *100:10 *531:A 3.49572e-05
53 *100:10 *173:10 0.000151973
54 *151:23 *526:A 0
55 *152:19 *531:A 0.000379607
56 *152:28 *533:A1 3.41517e-06
57 *152:28 *173:31 4.93142e-05
58 *152:28 *173:37 1.47972e-05
59 *152:51 *173:37 7.15905e-06
60 *152:51 *173:45 0.000153182
61 *152:59 *546:A1 0.000114869
62 *152:59 *173:70 4.15469e-05
63 *169:14 *173:45 0.000388036
64 *172:57 *173:53 7.18353e-06
65 *172:61 *173:53 0.000364604
*RES
1 *569:X *173:10 16.6929 
2 *173:10 *531:A 20.8 
3 *173:10 *173:27 4.5 
4 *173:27 *173:31 2.60714 
5 *173:31 *173:37 9.91071 
6 *173:37 *173:45 17.0179 
7 *173:45 *173:53 24.375 
8 *173:53 *546:A1 22.05 
9 *173:53 *173:70 13.125 
10 *173:70 *526:A 22.7286 
11 *173:70 *538:B 9.3 
12 *173:45 *519:B2 9.3 
13 *173:37 *535:A 9.83571 
14 *173:31 *533:A1 9.72857 
15 *173:27 *530:A 9.3 
*END

*D_NET *174 0.0124727
*CONN
*I *534:A1 I *D sky130_fd_sc_hd__a22o_1
*I *540:A I *D sky130_fd_sc_hd__nand2_1
*I *539:A I *D sky130_fd_sc_hd__or2_1
*I *547:A1 I *D sky130_fd_sc_hd__o221a_1
*I *570:X O *D sky130_fd_sc_hd__clkbuf_2
*CAP
1 *534:A1 0
2 *540:A 0
3 *539:A 0.000139614
4 *547:A1 0.000202939
5 *570:X 0.00037072
6 *174:36 0.00180937
7 *174:22 0.00350111
8 *174:8 0.00240501
9 *174:22 *451:B_N 0.000114279
10 result[1] *174:22 4.47378e-05
11 result[2] *174:8 5.64835e-06
12 zero *174:22 8.74324e-05
13 *433:B *174:36 0.000188586
14 *445:A *174:36 9.83388e-05
15 *451:A *174:22 2.13481e-06
16 *464:A2 *174:22 0
17 *532:A *174:22 0.000225555
18 *532:C *174:22 0.000205075
19 *534:A2 *174:36 0.000220935
20 *534:B1 *174:22 1.34548e-05
21 *534:B1 *174:36 2.36643e-05
22 *534:B2 *174:22 4.77132e-05
23 *540:B *539:A 9.62596e-05
24 *547:B1 *547:A1 0.000222629
25 *548:A1 *547:A1 6.05161e-06
26 *548:B1 *547:A1 8.43535e-06
27 *554:A *174:22 2.11419e-05
28 *569:A *174:22 4.51578e-05
29 *572:A *174:36 0.000146278
30 *574:A *174:22 0
31 *575:A *174:8 6.8776e-05
32 *68:10 *547:A1 0.00012401
33 *68:10 *174:36 2.89114e-05
34 *80:14 *547:A1 0.00033544
35 *84:31 *174:36 0.000608141
36 *94:14 *547:A1 1.3142e-05
37 *94:14 *174:36 5.71472e-05
38 *100:10 *174:22 0.000135028
39 *109:10 *174:36 5.65955e-05
40 *147:66 *174:22 0.00029261
41 *169:10 *174:36 0.000363837
42 *170:16 *547:A1 0
43 *173:53 *547:A1 0.000136733
*RES
1 *570:X *174:8 18.4429 
2 *174:8 *174:22 45.8214 
3 *174:22 *174:36 28.0714 
4 *174:36 *547:A1 24.7643 
5 *174:36 *539:A 12.3357 
6 *174:36 *540:A 9.3 
7 *174:22 *534:A1 9.3 
*END

*D_NET *175 0.0102855
*CONN
*I *451:B_N I *D sky130_fd_sc_hd__or2b_1
*I *435:A1 I *D sky130_fd_sc_hd__a32o_1
*I *446:A1 I *D sky130_fd_sc_hd__a21bo_1
*I *447:C I *D sky130_fd_sc_hd__nand3b_1
*I *465:A1 I *D sky130_fd_sc_hd__o21a_1
*I *498:A1 I *D sky130_fd_sc_hd__o41a_1
*I *431:A1_N I *D sky130_fd_sc_hd__a2bb2o_1
*I *432:A1 I *D sky130_fd_sc_hd__a21oi_1
*I *438:A1 I *D sky130_fd_sc_hd__o21a_1
*I *571:X O *D sky130_fd_sc_hd__buf_2
*CAP
1 *451:B_N 0.000181026
2 *435:A1 1.2701e-05
3 *446:A1 5.12406e-05
4 *447:C 1.15868e-05
5 *465:A1 4.36517e-05
6 *498:A1 0.000109867
7 *431:A1_N 0
8 *432:A1 0.000166435
9 *438:A1 0
10 *571:X 0.000172494
11 *175:77 0.000292252
12 *175:69 0.000186807
13 *175:67 0.000857672
14 *175:41 0.000467846
15 *175:31 0.00118865
16 *175:27 0.000265469
17 *175:14 0.000273458
18 *175:10 0.000491502
19 result[5] *432:A1 4.46186e-06
20 *432:B1 *432:A1 0.000130294
21 *435:A3 *435:A1 0
22 *435:A3 *175:31 0.000191194
23 *435:A3 *175:41 2.44318e-05
24 *435:A3 *175:67 0.000290789
25 *435:B1 *435:A1 2.01893e-05
26 *435:B1 *175:27 2.84026e-05
27 *435:B1 *175:31 9.48089e-05
28 *435:B1 *175:67 1.17968e-05
29 *435:B2 *451:B_N 0.000224592
30 *435:B2 *175:27 4.13122e-06
31 *438:A2 *175:14 4.13122e-06
32 *438:A2 *175:27 6.31564e-05
33 *441:B *175:10 0
34 *441:B *175:14 0
35 *441:D *175:41 7.55747e-05
36 *446:A2 *446:A1 0.000180777
37 *446:A2 *175:69 4.08637e-05
38 *447:B *447:C 1.11677e-05
39 *447:B *175:69 0.000100266
40 *451:A *451:B_N 8.25843e-06
41 *457:A *175:67 4.0789e-05
42 *461:B1 *175:67 0.000570278
43 *461:B2 *175:67 4.1557e-05
44 *463:A1 *446:A1 2.89114e-05
45 *465:A2 *465:A1 0.000127446
46 *465:A2 *175:77 1.02504e-05
47 *470:B1 *175:41 0
48 *472:B1 *175:67 3.41191e-05
49 *474:A *175:67 0.000153047
50 *475:B1 *175:67 0.000167266
51 *498:A2 *447:C 2.53134e-05
52 *498:A2 *498:A1 7.32272e-05
53 *498:A2 *175:77 6.56534e-05
54 *534:B1 *175:67 0.000129868
55 *534:B2 *451:B_N 2.85268e-05
56 *550:A *175:27 1.37292e-05
57 *550:A *175:67 0
58 *552:A *175:67 5.06044e-05
59 *573:A *432:A1 0
60 *573:A *175:41 7.71617e-05
61 *578:A *175:41 8.33626e-05
62 *578:A *175:67 0.000283654
63 *581:A *175:67 8.00806e-05
64 *92:82 *446:A1 6.42095e-05
65 *92:82 *175:69 9.47613e-05
66 *92:82 *175:77 0.00010096
67 *94:93 *175:77 0
68 *96:12 *175:67 3.34295e-05
69 *96:12 *175:77 0
70 *146:18 *432:A1 0.000171375
71 *146:35 *432:A1 3.34366e-05
72 *146:35 *175:41 0
73 *146:39 *175:41 4.35567e-05
74 *146:63 *175:31 1.98839e-05
75 *147:25 *175:69 1.74352e-05
76 *147:25 *175:77 9.22103e-06
77 *147:27 *447:C 1.04232e-05
78 *147:27 *498:A1 3.57366e-05
79 *149:14 *451:B_N 0.000454024
80 *149:14 *175:10 0.000211629
81 *156:22 *175:41 0.000150041
82 *168:20 *465:A1 6.07328e-05
83 *168:20 *175:67 0
84 *168:20 *175:77 5.57039e-05
85 *169:18 *175:67 0.000237909
86 *174:22 *451:B_N 0.000114279
*RES
1 *571:X *175:10 16.6482 
2 *175:10 *175:14 1.9375 
3 *175:14 *438:A1 13.8 
4 *175:14 *175:27 7.58929 
5 *175:27 *175:31 3.01786 
6 *175:31 *175:41 15.2857 
7 *175:41 *432:A1 21.9964 
8 *175:41 *431:A1_N 9.3 
9 *175:31 *175:67 30.5 
10 *175:67 *175:69 1.76786 
11 *175:69 *175:77 7.21429 
12 *175:77 *498:A1 16.0143 
13 *175:77 *465:A1 15.4429 
14 *175:69 *447:C 9.72857 
15 *175:67 *446:A1 11.0679 
16 *175:27 *435:A1 9.72857 
17 *175:10 *451:B_N 20.9161 
*END
