*SPEF "ieee 1481-1999"
*DESIGN "alu"
*DATE "11:11:11 Fri 11 11, 1111"
*VENDOR "OpenRCX"
*PROGRAM "Parallel Extraction"
*VERSION "1.0"
*DESIGN_FLOW "NAME_SCOPE LOCAL" "PIN_CAP NONE"
*DIVIDER /
*DELIMITER :
*BUS_DELIMITER []
*T_UNIT 1 NS
*C_UNIT 1 PF
*R_UNIT 1 OHM
*L_UNIT 1 HENRY

*NAME_MAP
*3 a[0]
*4 a[1]
*5 a[2]
*6 a[3]
*7 a[4]
*8 a[5]
*9 a[6]
*10 a[7]
*11 b[0]
*12 b[1]
*13 b[2]
*14 b[3]
*15 b[4]
*16 b[5]
*17 b[6]
*18 b[7]
*19 op[0]
*20 op[1]
*21 op[2]
*22 result[0]
*23 result[1]
*24 result[2]
*25 result[3]
*26 result[4]
*27 result[5]
*28 result[6]
*29 result[7]
*30 zero
*31 _000_
*32 _001_
*33 _002_
*34 _003_
*35 _004_
*36 _005_
*37 _006_
*38 _007_
*39 _008_
*40 _009_
*41 _010_
*42 _011_
*43 _012_
*44 _013_
*45 _014_
*46 _015_
*47 _016_
*48 _017_
*49 _018_
*50 _019_
*51 _020_
*52 _021_
*53 _022_
*54 _023_
*55 _024_
*56 _025_
*57 _026_
*58 _027_
*59 _028_
*60 _029_
*61 _030_
*62 _031_
*63 _032_
*64 _033_
*65 _034_
*66 _035_
*67 _036_
*68 _037_
*69 _038_
*70 _039_
*71 _040_
*72 _041_
*73 _042_
*74 _043_
*75 _044_
*76 _045_
*77 _046_
*78 _047_
*79 _048_
*80 _049_
*81 _050_
*82 _051_
*83 _052_
*84 _053_
*85 _054_
*86 _055_
*87 _056_
*88 _057_
*89 _058_
*90 _059_
*91 _060_
*92 _061_
*93 _062_
*94 _063_
*95 _064_
*96 _065_
*97 _066_
*98 _067_
*99 _068_
*100 _069_
*101 _070_
*102 _071_
*103 _072_
*104 _073_
*105 _074_
*106 _075_
*107 _076_
*108 _077_
*109 _078_
*110 _079_
*111 _080_
*112 _081_
*113 _082_
*114 _083_
*115 _084_
*116 _085_
*117 _086_
*118 _087_
*119 _088_
*120 _089_
*121 _090_
*122 _091_
*123 _092_
*124 _093_
*125 _094_
*126 _095_
*127 _096_
*128 _097_
*129 _098_
*130 _099_
*131 _100_
*132 _101_
*133 _102_
*134 _103_
*135 _104_
*136 _105_
*137 _106_
*138 _107_
*139 _108_
*140 _109_
*141 _110_
*142 _111_
*143 _112_
*144 _113_
*145 _114_
*146 net1
*147 net10
*148 net11
*149 net12
*150 net13
*151 net14
*152 net15
*153 net16
*154 net17
*155 net18
*156 net19
*157 net2
*158 net20
*159 net21
*160 net22
*161 net23
*162 net24
*163 net25
*164 net26
*165 net27
*166 net28
*167 net29
*168 net3
*169 net30
*170 net4
*171 net5
*172 net6
*173 net7
*174 net8
*175 net9
*176 FILLER_0_0_16
*177 FILLER_0_0_29
*178 FILLER_0_0_35
*179 FILLER_0_0_45
*180 FILLER_0_0_53
*181 FILLER_0_0_63
*182 FILLER_0_0_71
*183 FILLER_0_0_83
*184 FILLER_0_0_85
*185 FILLER_0_0_93
*186 FILLER_0_0_98
*187 FILLER_0_10_100
*188 FILLER_0_10_106
*189 FILLER_0_10_17
*190 FILLER_0_10_22
*191 FILLER_0_10_27
*192 FILLER_0_10_29
*193 FILLER_0_10_33
*194 FILLER_0_10_52
*195 FILLER_0_10_56
*196 FILLER_0_10_64
*197 FILLER_0_10_9
*198 FILLER_0_11_106
*199 FILLER_0_11_14
*200 FILLER_0_11_26
*201 FILLER_0_11_3
*202 FILLER_0_11_38
*203 FILLER_0_11_50
*204 FILLER_0_11_7
*205 FILLER_0_11_75
*206 FILLER_0_11_91
*207 FILLER_0_12_10
*208 FILLER_0_12_22
*209 FILLER_0_12_29
*210 FILLER_0_12_41
*211 FILLER_0_12_53
*212 FILLER_0_12_65
*213 FILLER_0_12_78
*214 FILLER_0_12_96
*215 FILLER_0_13_100
*216 FILLER_0_13_106
*217 FILLER_0_13_17
*218 FILLER_0_13_34
*219 FILLER_0_13_46
*220 FILLER_0_13_54
*221 FILLER_0_13_64
*222 FILLER_0_13_76
*223 FILLER_0_13_88
*224 FILLER_0_13_9
*225 FILLER_0_14_10
*226 FILLER_0_14_103
*227 FILLER_0_14_27
*228 FILLER_0_14_39
*229 FILLER_0_14_43
*230 FILLER_0_14_48
*231 FILLER_0_14_56
*232 FILLER_0_14_64
*233 FILLER_0_14_76
*234 FILLER_0_14_85
*235 FILLER_0_14_91
*236 FILLER_0_15_20
*237 FILLER_0_15_24
*238 FILLER_0_15_3
*239 FILLER_0_15_33
*240 FILLER_0_15_39
*241 FILLER_0_15_76
*242 FILLER_0_15_99
*243 FILLER_0_16_21
*244 FILLER_0_16_27
*245 FILLER_0_16_29
*246 FILLER_0_16_33
*247 FILLER_0_16_37
*248 FILLER_0_16_45
*249 FILLER_0_16_57
*250 FILLER_0_16_63
*251 FILLER_0_16_83
*252 FILLER_0_16_85
*253 FILLER_0_16_9
*254 FILLER_0_16_97
*255 FILLER_0_17_105
*256 FILLER_0_17_21
*257 FILLER_0_17_27
*258 FILLER_0_17_29
*259 FILLER_0_17_37
*260 FILLER_0_17_42
*261 FILLER_0_17_54
*262 FILLER_0_17_57
*263 FILLER_0_17_65
*264 FILLER_0_17_7
*265 FILLER_0_17_77
*266 FILLER_0_17_85
*267 FILLER_0_17_93
*268 FILLER_0_1_100
*269 FILLER_0_1_15
*270 FILLER_0_1_27
*271 FILLER_0_1_3
*272 FILLER_0_1_51
*273 FILLER_0_1_55
*274 FILLER_0_1_61
*275 FILLER_0_1_69
*276 FILLER_0_1_94
*277 FILLER_0_2_101
*278 FILLER_0_2_19
*279 FILLER_0_2_27
*280 FILLER_0_2_29
*281 FILLER_0_2_41
*282 FILLER_0_2_69
*283 FILLER_0_2_7
*284 FILLER_0_2_75
*285 FILLER_0_2_79
*286 FILLER_0_2_83
*287 FILLER_0_2_93
*288 FILLER_0_3_106
*289 FILLER_0_3_15
*290 FILLER_0_3_19
*291 FILLER_0_3_28
*292 FILLER_0_3_3
*293 FILLER_0_3_38
*294 FILLER_0_3_43
*295 FILLER_0_3_53
*296 FILLER_0_3_61
*297 FILLER_0_3_73
*298 FILLER_0_3_85
*299 FILLER_0_4_103
*300 FILLER_0_4_15
*301 FILLER_0_4_21
*302 FILLER_0_4_25
*303 FILLER_0_4_3
*304 FILLER_0_4_35
*305 FILLER_0_4_47
*306 FILLER_0_4_59
*307 FILLER_0_4_78
*308 FILLER_0_5_101
*309 FILLER_0_5_11
*310 FILLER_0_5_19
*311 FILLER_0_5_3
*312 FILLER_0_5_37
*313 FILLER_0_5_46
*314 FILLER_0_5_54
*315 FILLER_0_5_65
*316 FILLER_0_5_77
*317 FILLER_0_5_85
*318 FILLER_0_5_89
*319 FILLER_0_6_101
*320 FILLER_0_6_23
*321 FILLER_0_6_27
*322 FILLER_0_6_29
*323 FILLER_0_6_3
*324 FILLER_0_6_33
*325 FILLER_0_6_53
*326 FILLER_0_6_61
*327 FILLER_0_6_72
*328 FILLER_0_6_85
*329 FILLER_0_6_93
*330 FILLER_0_7_106
*331 FILLER_0_7_19
*332 FILLER_0_7_31
*333 FILLER_0_7_37
*334 FILLER_0_7_51
*335 FILLER_0_7_55
*336 FILLER_0_7_7
*337 FILLER_0_7_73
*338 FILLER_0_7_79
*339 FILLER_0_8_100
*340 FILLER_0_8_106
*341 FILLER_0_8_11
*342 FILLER_0_8_20
*343 FILLER_0_8_29
*344 FILLER_0_8_3
*345 FILLER_0_8_37
*346 FILLER_0_8_48
*347 FILLER_0_8_56
*348 FILLER_0_8_70
*349 FILLER_0_8_81
*350 FILLER_0_8_92
*351 FILLER_0_8_96
*352 FILLER_0_9_17
*353 FILLER_0_9_3
*354 FILLER_0_9_31
*355 FILLER_0_9_37
*356 FILLER_0_9_44
*357 FILLER_0_9_57
*358 FILLER_0_9_69
*359 FILLER_0_9_77
*360 FILLER_0_9_85
*361 FILLER_0_9_9
*362 FILLER_0_9_97
*363 PHY_0
*364 PHY_1
*365 PHY_10
*366 PHY_11
*367 PHY_12
*368 PHY_13
*369 PHY_14
*370 PHY_15
*371 PHY_16
*372 PHY_17
*373 PHY_18
*374 PHY_19
*375 PHY_2
*376 PHY_20
*377 PHY_21
*378 PHY_22
*379 PHY_23
*380 PHY_24
*381 PHY_25
*382 PHY_26
*383 PHY_27
*384 PHY_28
*385 PHY_29
*386 PHY_3
*387 PHY_30
*388 PHY_31
*389 PHY_32
*390 PHY_33
*391 PHY_34
*392 PHY_35
*393 PHY_4
*394 PHY_5
*395 PHY_6
*396 PHY_7
*397 PHY_8
*398 PHY_9
*399 TAP_36
*400 TAP_37
*401 TAP_38
*402 TAP_39
*403 TAP_40
*404 TAP_41
*405 TAP_42
*406 TAP_43
*407 TAP_44
*408 TAP_45
*409 TAP_46
*410 TAP_47
*411 TAP_48
*412 TAP_49
*413 TAP_50
*414 TAP_51
*415 TAP_52
*416 TAP_53
*417 TAP_54
*418 TAP_55
*419 TAP_56
*420 TAP_57
*421 TAP_58
*422 TAP_59
*423 TAP_60
*424 TAP_61
*425 TAP_62
*426 TAP_63
*427 TAP_64
*428 TAP_65
*429 _115_
*430 _116_
*431 _117_
*432 _118_
*433 _119_
*434 _120_
*435 _121_
*436 _122_
*437 _123_
*438 _124_
*439 _125_
*440 _126_
*441 _127_
*442 _128_
*443 _129_
*444 _130_
*445 _131_
*446 _132_
*447 _133_
*448 _134_
*449 _135_
*450 _136_
*451 _137_
*452 _138_
*453 _139_
*454 _140_
*455 _141_
*456 _142_
*457 _143_
*458 _144_
*459 _145_
*460 _146_
*461 _147_
*462 _148_
*463 _149_
*464 _150_
*465 _151_
*466 _152_
*467 _153_
*468 _154_
*469 _155_
*470 _156_
*471 _157_
*472 _158_
*473 _159_
*474 _160_
*475 _161_
*476 _162_
*477 _163_
*478 _164_
*479 _165_
*480 _166_
*481 _167_
*482 _168_
*483 _169_
*484 _170_
*485 _171_
*486 _172_
*487 _173_
*488 _174_
*489 _175_
*490 _176_
*491 _177_
*492 _178_
*493 _179_
*494 _180_
*495 _181_
*496 _182_
*497 _183_
*498 _184_
*499 _185_
*500 _186_
*501 _187_
*502 _188_
*503 _189_
*504 _190_
*505 _191_
*506 _192_
*507 _193_
*508 _194_
*509 _195_
*510 _196_
*511 _197_
*512 _198_
*513 _199_
*514 _200_
*515 _201_
*516 _202_
*517 _203_
*518 _204_
*519 _205_
*520 _206_
*521 _207_
*522 _208_
*523 _209_
*524 _210_
*525 _211_
*526 _212_
*527 _213_
*528 _214_
*529 _215_
*530 _216_
*531 _217_
*532 _218_
*533 _219_
*534 _220_
*535 _221_
*536 _222_
*537 _223_
*538 _224_
*539 _225_
*540 _226_
*541 _227_
*542 _228_
*543 _229_
*544 _230_
*545 _231_
*546 _232_
*547 _233_
*548 _234_
*549 _235_
*550 _236_
*551 _237_
*552 _238_
*553 input1
*554 input10
*555 input11
*556 input12
*557 input13
*558 input14
*559 input15
*560 input16
*561 input17
*562 input18
*563 input19
*564 input2
*565 input3
*566 input4
*567 input5
*568 input6
*569 input7
*570 input8
*571 input9
*572 max_cap30
*573 output20
*574 output21
*575 output22
*576 output23
*577 output24
*578 output25
*579 output26
*580 output27
*581 output28
*582 wire29

*PORTS
a[0] I
a[1] I
a[2] I
a[3] I
a[4] I
a[5] I
a[6] I
a[7] I
b[0] I
b[1] I
b[2] I
b[3] I
b[4] I
b[5] I
b[6] I
b[7] I
op[0] I
op[1] I
op[2] I
result[0] O
result[1] O
result[2] O
result[3] O
result[4] O
result[5] O
result[6] O
result[7] O
zero O

*D_NET *3 0.000998845
*CONN
*P a[0] I
*I *553:A I *D sky130_fd_sc_hd__clkbuf_2
*CAP
1 a[0] 0.000379516
2 *553:A 0.000379516
3 *553:A *560:A 0.000239813
*RES
1 a[0] *553:A 10.0454 
*END

*D_NET *4 0.00199859
*CONN
*P a[1] I
*I *564:A I *D sky130_fd_sc_hd__clkbuf_2
*CAP
1 a[1] 0.000999293
2 *564:A 0.000999293
*RES
1 a[1] *564:A 20.88 
*END

*D_NET *5 0.00102628
*CONN
*P a[2] I
*I *565:A I *D sky130_fd_sc_hd__buf_2
*CAP
1 a[2] 0.000475085
2 *565:A 0.000475085
3 *565:A result[7] 5.05066e-06
4 *565:A *558:A 7.10578e-05
*RES
1 a[2] *565:A 9.33523 
*END

*D_NET *6 0.000435042
*CONN
*P a[3] I
*I *566:A I *D sky130_fd_sc_hd__buf_2
*CAP
1 a[3] 0.000217521
2 *566:A 0.000217521
*RES
1 a[3] *566:A 6.38543 
*END

*D_NET *7 0.000953287
*CONN
*P a[4] I
*I *567:A I *D sky130_fd_sc_hd__clkbuf_2
*CAP
1 a[4] 0.000476644
2 *567:A 0.000476644
*RES
1 a[4] *567:A 12.18 
*END

*D_NET *8 0.000942206
*CONN
*P a[5] I
*I *568:A I *D sky130_fd_sc_hd__clkbuf_2
*CAP
1 a[5] 0.000471103
2 *568:A 0.000471103
*RES
1 a[5] *568:A 12.075 
*END

*D_NET *9 0.000623996
*CONN
*P a[6] I
*I *569:A I *D sky130_fd_sc_hd__buf_2
*CAP
1 a[6] 0.000288549
2 *569:A 0.000288549
3 *569:A *174:22 4.68984e-05
*RES
1 a[6] *569:A 7.3737 
*END

*D_NET *10 0.00108382
*CONN
*P a[7] I
*I *570:A I *D sky130_fd_sc_hd__clkbuf_2
*CAP
1 a[7] 0.000498691
2 *570:A 0.000498691
3 *570:A result[2] 0
4 *570:A *575:A 8.64421e-05
*RES
1 a[7] *570:A 12.525 
*END

*D_NET *11 0.00076825
*CONN
*P b[0] I
*I *571:A I *D sky130_fd_sc_hd__buf_2
*CAP
1 b[0] 0.000384125
2 *571:A 0.000384125
*RES
1 b[0] *571:A 10.455 
*END

*D_NET *12 0.000432501
*CONN
*P b[1] I
*I *554:A I *D sky130_fd_sc_hd__dlymetal6s2s_1
*CAP
1 b[1] 0.000200476
2 *554:A 0.000200476
3 *554:A *147:66 1.22505e-05
4 *554:A *174:22 1.92979e-05
*RES
1 b[1] *554:A 4.84677 
*END

*D_NET *13 0.000942206
*CONN
*P b[2] I
*I *555:A I *D sky130_fd_sc_hd__clkbuf_2
*CAP
1 b[2] 0.000471103
2 *555:A 0.000471103
*RES
1 b[2] *555:A 12.075 
*END

*D_NET *14 0.00127371
*CONN
*P b[3] I
*I *556:A I *D sky130_fd_sc_hd__clkbuf_2
*CAP
1 b[3] 0.000535264
2 *556:A 0.000535264
3 *556:A *559:A 0.000203178
*RES
1 b[3] *556:A 12.4137 
*END

*D_NET *15 0.000887798
*CONN
*P b[4] I
*I *557:A I *D sky130_fd_sc_hd__clkbuf_2
*CAP
1 b[4] 0.000352307
2 *557:A 0.000352307
3 *557:A *525:B 8.50602e-05
4 *557:A *37:12 9.81229e-05
*RES
1 b[4] *557:A 7.71003 
*END

*D_NET *16 0.00131768
*CONN
*P b[5] I
*I *558:A I *D sky130_fd_sc_hd__clkbuf_2
*CAP
1 b[5] 0.00062331
2 *558:A 0.00062331
3 *558:A result[7] 0
4 *565:A *558:A 7.10578e-05
*RES
1 b[5] *558:A 14.385 
*END

*D_NET *17 0.00145947
*CONN
*P b[6] I
*I *559:A I *D sky130_fd_sc_hd__clkbuf_2
*CAP
1 b[6] 0.00060161
2 *559:A 0.00060161
3 *559:A *563:A 0
4 *559:A *149:14 5.30673e-05
5 *556:A *559:A 0.000203178
*RES
1 b[6] *559:A 14.85 
*END

*D_NET *18 0.00168003
*CONN
*P b[7] I
*I *560:A I *D sky130_fd_sc_hd__clkbuf_1
*CAP
1 b[7] 0.000695127
2 *560:A 0.000695127
3 *560:A *146:14 4.99619e-05
4 *553:A *560:A 0.000239813
*RES
1 b[7] *560:A 16.56 
*END

*D_NET *19 0.000763257
*CONN
*P op[0] I
*I *561:A I *D sky130_fd_sc_hd__buf_4
*CAP
1 op[0] 0.000381629
2 *561:A 0.000381629
*RES
1 op[0] *561:A 10.455 
*END

*D_NET *20 0.000783548
*CONN
*P op[1] I
*I *562:A I *D sky130_fd_sc_hd__buf_2
*CAP
1 op[1] 0.000387523
2 *562:A 0.000387523
3 *562:A *80:14 0
4 *562:A *154:19 2.97004e-06
5 *562:A *155:25 5.53249e-06
*RES
1 op[1] *562:A 10.455 
*END

*D_NET *21 0.000531948
*CONN
*P op[2] I
*I *563:A I *D sky130_fd_sc_hd__buf_4
*CAP
1 op[2] 0.000265974
2 *563:A 0.000265974
3 *563:A *152:8 0
4 *559:A *563:A 0
*RES
1 op[2] *563:A 6.8637 
*END

*D_NET *22 0.00111322
*CONN
*P result[0] O
*I *573:X O *D sky130_fd_sc_hd__clkbuf_4
*CAP
1 result[0] 0.00044928
2 *573:X 0.00044928
3 result[0] *80:52 7.58604e-05
4 result[0] *146:14 0.000138799
*RES
1 *573:X result[0] 11.82 
*END

*D_NET *23 0.00055348
*CONN
*P result[1] O
*I *574:X O *D sky130_fd_sc_hd__clkbuf_4
*CAP
1 result[1] 0.00025637
2 *574:X 0.00025637
3 result[1] *174:22 4.07391e-05
*RES
1 *574:X result[1] 5.10177 
*END

*D_NET *24 0.00103965
*CONN
*P result[2] O
*I *575:X O *D sky130_fd_sc_hd__clkbuf_4
*CAP
1 result[2] 0.000516953
2 *575:X 0.000516953
3 result[2] *174:22 5.74817e-06
4 *570:A result[2] 0
*RES
1 *575:X result[2] 9.4933 
*END

*D_NET *25 0.000449898
*CONN
*P result[3] O
*I *576:X O *D sky130_fd_sc_hd__clkbuf_4
*CAP
1 result[3] 0.000224949
2 *576:X 0.000224949
*RES
1 *576:X result[3] 6.38543 
*END

*D_NET *26 0.00116085
*CONN
*P result[4] O
*I *577:X O *D sky130_fd_sc_hd__clkbuf_4
*CAP
1 result[4] 0.000571562
2 *577:X 0.000571562
3 result[4] *168:14 1.77238e-05
*RES
1 *577:X result[4] 12.96 
*END

*D_NET *27 0.000954695
*CONN
*P result[5] O
*I *578:X O *D sky130_fd_sc_hd__clkbuf_4
*CAP
1 result[5] 0.000475128
2 *578:X 0.000475128
3 result[5] *432:A1 4.43871e-06
*RES
1 *578:X result[5] 13.11 
*END

*D_NET *28 0.000535999
*CONN
*P result[6] O
*I *579:X O *D sky130_fd_sc_hd__clkbuf_4
*CAP
1 result[6] 0.000267999
2 *579:X 0.000267999
3 result[6] *150:8 0
*RES
1 *579:X result[6] 7.15043 
*END

*D_NET *29 0.00155032
*CONN
*P result[7] O
*I *580:X O *D sky130_fd_sc_hd__clkbuf_4
*CAP
1 result[7] 0.000736822
2 *580:X 0.000736822
3 result[7] *151:10 7.1624e-05
4 *558:A result[7] 0
5 *565:A result[7] 5.05066e-06
*RES
1 *580:X result[7] 13.2272 
*END

*D_NET *30 0.000752393
*CONN
*P zero O
*I *581:X O *D sky130_fd_sc_hd__buf_6
*CAP
1 zero 0.000256435
2 *581:X 0.000256435
3 zero *147:66 0.000154806
4 zero *174:22 8.47169e-05
*RES
1 *581:X zero 6.43503 
*END

*D_NET *31 0.000825746
*CONN
*I *501:A I *D sky130_fd_sc_hd__inv_2
*I *500:Y O *D sky130_fd_sc_hd__xnor2_1
*CAP
1 *501:A 0.000250883
2 *500:Y 0.000250883
3 *501:A *500:A 1.08758e-05
4 *501:A *143:6 8.53011e-05
5 *501:A *171:24 0.000227802
*RES
1 *500:Y *501:A 8.51 
*END

*D_NET *32 0.00105976
*CONN
*I *504:A I *D sky130_fd_sc_hd__xnor2_1
*I *513:B1 I *D sky130_fd_sc_hd__o211ai_2
*I *501:Y O *D sky130_fd_sc_hd__inv_2
*CAP
1 *504:A 0
2 *513:B1 0.000117739
3 *501:Y 0.000157496
4 *32:6 0.000275235
5 *513:B1 *504:B 0.000156786
6 *513:B1 *513:C1 3.1876e-05
7 *513:B1 *43:8 4.77757e-05
8 *32:6 *171:24 0.000272854
*RES
1 *501:Y *32:6 4.81 
2 *32:6 *513:B1 8.285 
3 *32:6 *504:A 1.6 
*END

*D_NET *33 0.000641971
*CONN
*I *513:A2 I *D sky130_fd_sc_hd__o211ai_2
*I *503:A2 I *D sky130_fd_sc_hd__o21ai_1
*I *502:X O *D sky130_fd_sc_hd__a21o_1
*CAP
1 *513:A2 0
2 *503:A2 4.45898e-05
3 *502:X 0.000115621
4 *33:8 0.000160211
5 *503:A2 *505:B1 0.000134503
6 *503:A2 *172:18 0.000136177
7 *33:8 *513:A1 3.5678e-06
8 *33:8 *126:6 2.93836e-05
9 *33:8 *129:14 1.79174e-05
*RES
1 *502:X *33:8 3.445 
2 *33:8 *503:A2 7.235 
3 *33:8 *513:A2 1.6 
*END

*D_NET *34 0.00114373
*CONN
*I *504:B I *D sky130_fd_sc_hd__xnor2_1
*I *503:Y O *D sky130_fd_sc_hd__o21ai_1
*CAP
1 *504:B 0.000310021
2 *503:Y 0.000310021
3 *504:B *503:B1 2.12738e-05
4 *504:B *171:24 0.000231651
5 *504:B *172:18 0.000113977
6 *513:B1 *504:B 0.000156786
*RES
1 *503:Y *504:B 13.26 
*END

*D_NET *35 0.00181188
*CONN
*I *505:B1 I *D sky130_fd_sc_hd__o32a_1
*I *504:Y O *D sky130_fd_sc_hd__xnor2_1
*CAP
1 *505:B1 0.00070996
2 *504:Y 0.00070996
3 *505:B1 *503:B1 0.000110486
4 *505:B1 *171:24 3.03586e-05
5 *505:B1 *172:18 0.000116611
6 *503:A2 *505:B1 0.000134503
*RES
1 *504:Y *505:B1 19.455 
*END

*D_NET *36 0.0013878
*CONN
*I *523:A1 I *D sky130_fd_sc_hd__o21a_1
*I *510:A I *D sky130_fd_sc_hd__and2_1
*I *509:A I *D sky130_fd_sc_hd__nor2_1
*I *506:Y O *D sky130_fd_sc_hd__inv_2
*CAP
1 *523:A1 1.17282e-05
2 *510:A 0
3 *509:A 2.89424e-05
4 *506:Y 0.000337708
5 *36:10 0.000137053
6 *36:6 0.000457547
7 *509:A *38:17 8.8266e-05
8 *523:A1 *510:B 4.00541e-06
9 *36:6 *511:A 2.66586e-05
10 *36:6 *511:B 4.85494e-05
11 *36:6 *515:A 8.8266e-05
12 *36:6 *522:A2 3.51072e-05
13 *36:6 *523:A2 3.00381e-05
14 *36:10 *510:B 9.53428e-06
15 *36:10 *523:A2 6.3889e-05
16 *36:10 *38:17 2.05056e-05
*RES
1 *506:Y *36:6 7.225 
2 *36:6 *36:10 1.845 
3 *36:10 *509:A 2.395 
4 *36:10 *510:A 1.6 
5 *36:6 *523:A1 1.96 
*END

*D_NET *37 0.00471814
*CONN
*I *508:B I *D sky130_fd_sc_hd__xor2_1
*I *542:A3 I *D sky130_fd_sc_hd__o31a_1
*I *524:B1 I *D sky130_fd_sc_hd__a21oi_1
*I *507:X O *D sky130_fd_sc_hd__a21o_1
*CAP
1 *508:B 0.000213554
2 *542:A3 0.000307911
3 *524:B1 4.6317e-05
4 *507:X 6.91192e-05
5 *37:12 0.000621533
6 *37:8 0.000549979
7 *508:B *499:A 0.000110683
8 *508:B *145:8 9.3062e-06
9 *508:B *151:10 3.09233e-05
10 *508:B *151:23 0.000474343
11 *524:B1 *151:27 3.12916e-05
12 *542:A3 *524:A2 5.49293e-05
13 *542:A3 *525:B 3.12916e-05
14 *542:A3 *543:B 0.000159722
15 *542:A3 *94:27 0.000132374
16 *542:A3 *151:27 2.10295e-05
17 *37:8 *507:A1 3.03775e-05
18 *37:12 *499:A 5.56629e-05
19 *37:12 *525:B 3.12855e-05
20 *37:12 *150:8 0.000520015
21 *37:12 *150:45 0.000162332
22 *37:12 *151:23 0.000956038
23 *557:A *37:12 9.81229e-05
*RES
1 *507:X *37:8 4.395 
2 *37:8 *37:12 13.07 
3 *37:12 *524:B1 2.41 
4 *37:12 *542:A3 7.15 
5 *37:8 *508:B 9.315 
*END

*D_NET *38 0.000917651
*CONN
*I *523:A2 I *D sky130_fd_sc_hd__o21a_1
*I *510:B I *D sky130_fd_sc_hd__and2_1
*I *509:B I *D sky130_fd_sc_hd__nor2_1
*I *508:X O *D sky130_fd_sc_hd__xor2_1
*CAP
1 *523:A2 3.69075e-05
2 *510:B 9.48747e-06
3 *509:B 0
4 *508:X 0.000120553
5 *38:17 0.000105941
6 *38:8 0.000180099
7 *523:A2 *511:A 4.21973e-05
8 *523:A2 *511:B 8.65961e-05
9 *38:17 *511:A 0.000119631
10 *509:A *38:17 8.8266e-05
11 *523:A1 *510:B 4.00541e-06
12 *36:6 *523:A2 3.00381e-05
13 *36:10 *510:B 9.53428e-06
14 *36:10 *523:A2 6.3889e-05
15 *36:10 *38:17 2.05056e-05
*RES
1 *508:X *38:8 3.445 
2 *38:8 *509:B 1.6 
3 *38:8 *38:17 2.19 
4 *38:17 *510:B 1.96 
5 *38:17 *523:A2 3.085 
*END

*D_NET *39 0.00136367
*CONN
*I *511:A I *D sky130_fd_sc_hd__or2_1
*I *509:Y O *D sky130_fd_sc_hd__nor2_1
*CAP
1 *511:A 0.000433686
2 *509:Y 0.000433686
3 *511:A *511:B 0.000270599
4 *511:A *515:A 3.72081e-05
5 *523:A2 *511:A 4.21973e-05
6 *36:6 *511:A 2.66586e-05
7 *38:17 *511:A 0.000119631
*RES
1 *509:Y *511:A 13.77 
*END

*D_NET *40 0.00145386
*CONN
*I *511:B I *D sky130_fd_sc_hd__or2_1
*I *528:B1 I *D sky130_fd_sc_hd__a21o_1
*I *527:C1 I *D sky130_fd_sc_hd__a211oi_2
*I *510:X O *D sky130_fd_sc_hd__and2_1
*CAP
1 *511:B 0.000130141
2 *528:B1 0
3 *527:C1 6.16694e-05
4 *510:X 0
5 *40:10 0.00017638
6 *40:4 0.000244851
7 *511:B *523:B1 8.96077e-05
8 *511:B *43:20 0
9 *527:C1 *527:A2 0
10 *527:C1 *528:A1 1.61831e-05
11 *527:C1 *528:A2 4.99619e-05
12 *527:C1 *576:A 0.000117038
13 *527:C1 *52:12 0
14 *527:C1 *56:10 4.82919e-05
15 *40:10 *523:B1 0
16 *40:10 *580:A 0.000113988
17 *40:10 *52:12 0
18 *511:A *511:B 0.000270599
19 *523:A2 *511:B 8.65961e-05
20 *36:6 *511:B 4.85494e-05
*RES
1 *510:X *40:4 1.6 
2 *40:4 *40:10 6.4 
3 *40:10 *527:C1 3.445 
4 *40:10 *528:B1 1.6 
5 *40:4 *511:B 9.32 
*END

*D_NET *41 0.000432938
*CONN
*I *515:A I *D sky130_fd_sc_hd__xnor2_1
*I *511:X O *D sky130_fd_sc_hd__or2_1
*CAP
1 *515:A 9.36163e-05
2 *511:X 9.36163e-05
3 *515:A *515:B 0.000120231
4 *511:A *515:A 3.72081e-05
5 *36:6 *515:A 8.8266e-05
*RES
1 *511:X *515:A 9.735 
*END

*D_NET *42 0.00101456
*CONN
*I *514:A I *D sky130_fd_sc_hd__nand2_1
*I *523:B1 I *D sky130_fd_sc_hd__o21a_1
*I *512:X O *D sky130_fd_sc_hd__or2_1
*CAP
1 *514:A 0.000205803
2 *523:B1 9.00558e-05
3 *512:X 0.000164021
4 *42:6 0.00045988
5 *514:A *43:8 5.19006e-06
6 *523:B1 *580:A 0
7 *523:B1 *43:20 0
8 *511:B *523:B1 8.96077e-05
9 *40:10 *523:B1 0
*RES
1 *512:X *42:6 3.43 
2 *42:6 *523:B1 7.235 
3 *42:6 *514:A 4.75 
*END

*D_NET *43 0.00201866
*CONN
*I *514:B I *D sky130_fd_sc_hd__nand2_1
*I *528:A1 I *D sky130_fd_sc_hd__a21o_1
*I *527:A1 I *D sky130_fd_sc_hd__a211oi_2
*I *513:Y O *D sky130_fd_sc_hd__o211ai_2
*CAP
1 *514:B 0
2 *528:A1 0.000241672
3 *527:A1 0
4 *513:Y 0.000273383
5 *43:20 0.000563699
6 *43:8 0.00059541
7 *528:A1 *527:A2 7.76676e-05
8 *528:A1 *528:A2 7.60965e-05
9 *528:A1 *52:12 0
10 *43:20 *515:B 7.1624e-05
11 *43:20 *527:A2 4.99619e-05
12 *43:20 *52:12 0
13 *511:B *43:20 0
14 *513:B1 *43:8 4.77757e-05
15 *514:A *43:8 5.19006e-06
16 *523:B1 *43:20 0
17 *527:C1 *528:A1 1.61831e-05
*RES
1 *513:Y *43:8 5.17 
2 *43:8 *43:20 9.19 
3 *43:20 *527:A1 1.6 
4 *43:20 *528:A1 5.08 
5 *43:8 *514:B 1.6 
*END

*D_NET *44 0.000331946
*CONN
*I *515:B I *D sky130_fd_sc_hd__xnor2_1
*I *514:Y O *D sky130_fd_sc_hd__nand2_1
*CAP
1 *515:B 7.00452e-05
2 *514:Y 7.00452e-05
3 *515:A *515:B 0.000120231
4 *43:20 *515:B 7.1624e-05
*RES
1 *514:Y *515:B 9.135 
*END

*D_NET *45 0.00232377
*CONN
*I *522:A2 I *D sky130_fd_sc_hd__o21a_1
*I *515:Y O *D sky130_fd_sc_hd__xnor2_1
*CAP
1 *522:A2 0.000567908
2 *515:Y 0.000567908
3 *522:A2 *492:B1 0.00015264
4 *522:A2 *506:A 5.83121e-06
5 *522:A2 *522:B1 7.23602e-05
6 *522:A2 *545:B1 4.66108e-05
7 *522:A2 *171:24 2.42236e-05
8 *522:A2 *171:36 2.29406e-05
9 *522:A2 *172:39 0.000828237
10 *36:6 *522:A2 3.51072e-05
*RES
1 *515:Y *522:A2 20.115 
*END

*D_NET *46 0.00093776
*CONN
*I *520:A2 I *D sky130_fd_sc_hd__a311o_1
*I *518:A2_N I *D sky130_fd_sc_hd__a2bb2o_1
*I *516:Y O *D sky130_fd_sc_hd__nand2_1
*CAP
1 *520:A2 0.000125319
2 *518:A2_N 1.72799e-05
3 *516:Y 8.2363e-05
4 *46:6 0.000224962
5 *518:A2_N *518:A1_N 9.12671e-06
6 *518:A2_N *518:B2 3.50152e-06
7 *520:A2 *518:B1 4.77719e-05
8 *520:A2 *518:B2 2.20014e-05
9 *520:A2 *520:A3 8.35157e-05
10 *520:A2 *521:B1 7.08554e-05
11 *520:A2 *521:C1 2.86975e-05
12 *520:A2 *105:14 5.33139e-05
13 *46:6 *516:A 8.52845e-05
14 *46:6 *521:B1 6.81239e-05
15 *46:6 *105:14 1.56428e-05
*RES
1 *516:Y *46:6 3.43 
2 *46:6 *518:A2_N 1.96 
3 *46:6 *520:A2 4.825 
*END

*D_NET *47 0.000558981
*CONN
*I *520:A3 I *D sky130_fd_sc_hd__a311o_1
*I *518:B1 I *D sky130_fd_sc_hd__a2bb2o_1
*I *517:X O *D sky130_fd_sc_hd__or2_1
*CAP
1 *520:A3 2.0145e-05
2 *518:B1 1.02931e-05
3 *517:X 7.58671e-05
4 *47:10 0.000106305
5 *518:B1 *518:B2 4.77719e-05
6 *520:A3 *518:B2 3.57349e-05
7 *520:A3 *105:14 2.10905e-05
8 *47:10 *87:27 9.03081e-05
9 *47:10 *87:44 2.01779e-05
10 *520:A2 *518:B1 4.77719e-05
11 *520:A2 *520:A3 8.35157e-05
*RES
1 *517:X *47:10 6.98 
2 *47:10 *518:B1 2.05 
3 *47:10 *520:A3 2.395 
*END

*D_NET *48 0.00080323
*CONN
*I *521:B1 I *D sky130_fd_sc_hd__a211o_1
*I *518:X O *D sky130_fd_sc_hd__a2bb2o_1
*CAP
1 *521:B1 0.000252078
2 *518:X 0.000252078
3 *521:B1 *521:C1 0.000132586
4 *521:B1 *109:31 2.75092e-05
5 *520:A2 *521:B1 7.08554e-05
6 *46:6 *521:B1 6.81239e-05
*RES
1 *518:X *521:B1 11.01 
*END

*D_NET *49 0.000787911
*CONN
*I *520:B1 I *D sky130_fd_sc_hd__a311o_1
*I *519:X O *D sky130_fd_sc_hd__a2bb2o_1
*CAP
1 *520:B1 0.000247048
2 *519:X 0.000247048
3 *520:B1 *494:A3 0.000110791
4 *520:B1 *84:16 0.000156771
5 *520:B1 *172:61 2.62526e-05
*RES
1 *519:X *520:B1 10.755 
*END

*D_NET *50 0.000436857
*CONN
*I *521:C1 I *D sky130_fd_sc_hd__a211o_1
*I *520:X O *D sky130_fd_sc_hd__a311o_1
*CAP
1 *521:C1 8.65867e-05
2 *520:X 8.65867e-05
3 *521:C1 *495:B 7.20529e-05
4 *521:C1 *87:44 3.03465e-05
5 *520:A2 *521:C1 2.86975e-05
6 *521:B1 *521:C1 0.000132586
*RES
1 *520:X *521:C1 9.285 
*END

*D_NET *51 0.00102804
*CONN
*I *522:B1 I *D sky130_fd_sc_hd__o21a_1
*I *521:X O *D sky130_fd_sc_hd__a211o_1
*CAP
1 *522:B1 0.000190344
2 *521:X 0.000190344
3 *522:B1 *496:B1 0.000116179
4 *522:B1 *496:C1 0.000110791
5 *522:B1 *522:A1 8.35106e-05
6 *522:B1 *549:B1 0
7 *522:B1 *552:C 8.35106e-05
8 *522:B1 *172:39 0.000181005
9 *522:A2 *522:B1 7.23602e-05
*RES
1 *521:X *522:B1 12.12 
*END

*D_NET *52 0.000847036
*CONN
*I *527:A2 I *D sky130_fd_sc_hd__a211oi_2
*I *528:A2 I *D sky130_fd_sc_hd__a21o_1
*I *523:X O *D sky130_fd_sc_hd__o21a_1
*CAP
1 *527:A2 8.194e-05
2 *528:A2 2.34932e-05
3 *523:X 9.63524e-05
4 *52:12 0.000201786
5 *527:A2 *576:A 0.000153298
6 *528:A2 *576:A 1.34503e-05
7 *528:A2 *56:10 2.30292e-05
8 *527:C1 *527:A2 0
9 *527:C1 *528:A2 4.99619e-05
10 *527:C1 *52:12 0
11 *528:A1 *527:A2 7.76676e-05
12 *528:A1 *528:A2 7.60965e-05
13 *528:A1 *52:12 0
14 *40:10 *52:12 0
15 *43:20 *527:A2 4.99619e-05
16 *43:20 *52:12 0
*RES
1 *523:X *52:12 7.085 
2 *52:12 *528:A2 2.74 
3 *52:12 *527:A2 4.585 
*END

*D_NET *53 0.000482444
*CONN
*I *525:B I *D sky130_fd_sc_hd__xnor2_1
*I *524:Y O *D sky130_fd_sc_hd__a21oi_1
*CAP
1 *525:B 0.000167403
2 *524:Y 0.000167403
3 *542:A3 *525:B 3.12916e-05
4 *557:A *525:B 8.50602e-05
5 *37:12 *525:B 3.12855e-05
*RES
1 *524:Y *525:B 10.215 
*END

*D_NET *54 0.00138168
*CONN
*I *526:B I *D sky130_fd_sc_hd__xor2_1
*I *538:A_N I *D sky130_fd_sc_hd__and2b_1
*I *525:Y O *D sky130_fd_sc_hd__xnor2_1
*CAP
1 *526:B 9.93039e-05
2 *538:A_N 0.000107296
3 *525:Y 0.000193369
4 *54:8 0.000399968
5 *526:B *526:A 7.89689e-05
6 *526:B *94:40 2.68875e-05
7 *526:B *151:23 8.42575e-05
8 *538:A_N *526:A 2.99026e-05
9 *54:8 *543:A 0.000112087
10 *54:8 *94:40 0.000122014
11 *54:8 *151:23 0.000127624
*RES
1 *525:Y *54:8 8.805 
2 *54:8 *538:A_N 5.085 
3 *54:8 *526:B 6.45 
*END

*D_NET *55 0.0023597
*CONN
*I *527:B1 I *D sky130_fd_sc_hd__a211oi_2
*I *529:A1 I *D sky130_fd_sc_hd__a21o_1
*I *526:X O *D sky130_fd_sc_hd__xor2_1
*CAP
1 *527:B1 0.000348536
2 *529:A1 0
3 *526:X 0.000314408
4 *55:16 0.000662944
5 *527:B1 *529:B1 1.56428e-05
6 *527:B1 *580:A 0
7 *527:B1 *56:10 0.000101355
8 *527:B1 *79:43 3.45679e-05
9 *55:16 *544:A1 0.000205544
10 *55:16 *544:B1 0
11 *55:16 *545:A3 0.000163199
12 *55:16 *580:A 0.000378968
13 *55:16 *56:10 9.95272e-05
14 *55:16 *56:12 3.50033e-05
15 *55:16 *71:8 0
*RES
1 *526:X *55:16 13.1 
2 *55:16 *529:A1 1.6 
3 *55:16 *527:B1 10.85 
*END

*D_NET *56 0.00186424
*CONN
*I *544:A2 I *D sky130_fd_sc_hd__o21ai_1
*I *537:A1 I *D sky130_fd_sc_hd__o21ai_1
*I *545:A2 I *D sky130_fd_sc_hd__o31a_1
*I *527:Y O *D sky130_fd_sc_hd__a211oi_2
*CAP
1 *544:A2 8.88903e-05
2 *537:A1 0
3 *545:A2 4.8941e-05
4 *527:Y 0.000209277
5 *56:12 7.14022e-05
6 *56:10 0.000320628
7 *544:A2 *150:14 0.000120655
8 *545:A2 *544:A1 0.000157595
9 *545:A2 *548:C1 0.000159269
10 *56:10 *548:C1 0.000116853
11 *56:10 *576:A 8.65961e-05
12 *56:10 *580:A 0.000102216
13 *56:12 *548:C1 7.47145e-05
14 *527:B1 *56:10 0.000101355
15 *527:C1 *56:10 4.82919e-05
16 *528:A2 *56:10 2.30292e-05
17 *55:16 *56:10 9.95272e-05
18 *55:16 *56:12 3.50033e-05
*RES
1 *527:Y *56:10 9.6 
2 *56:10 *56:12 0.87 
3 *56:12 *545:A2 5.49 
4 *56:12 *537:A1 3.6 
5 *56:10 *544:A2 4.74 
*END

*D_NET *57 0.000602016
*CONN
*I *529:A2 I *D sky130_fd_sc_hd__a21o_1
*I *528:X O *D sky130_fd_sc_hd__a21o_1
*CAP
1 *529:A2 0.000232301
2 *528:X 0.000232301
3 *529:A2 *507:A1 0
4 *529:A2 *507:B1 0
5 *529:A2 *529:B1 0
6 *529:A2 *580:A 0.000137414
7 *529:A2 *94:55 0
8 *529:A2 *145:8 0
*RES
1 *528:X *529:A2 11.52 
*END

*D_NET *58 0.000274518
*CONN
*I *537:A2 I *D sky130_fd_sc_hd__o21ai_1
*I *529:X O *D sky130_fd_sc_hd__a21o_1
*CAP
1 *537:A2 7.69328e-05
2 *529:X 7.69328e-05
3 *537:A2 *548:C1 7.23602e-05
4 *537:A2 *150:14 4.82919e-05
*RES
1 *529:X *537:A2 8.52 
*END

*D_NET *59 0.000544449
*CONN
*I *532:B I *D sky130_fd_sc_hd__and3_1
*I *530:Y O *D sky130_fd_sc_hd__nand2_1
*CAP
1 *532:B 0.000100031
2 *530:Y 0.000100031
3 *532:B *531:A 0.000179981
4 *532:B *100:10 0.000164407
*RES
1 *530:Y *532:B 9.795 
*END

*D_NET *60 0.0012689
*CONN
*I *532:C I *D sky130_fd_sc_hd__and3_1
*I *534:B2 I *D sky130_fd_sc_hd__a22o_1
*I *531:X O *D sky130_fd_sc_hd__or2_1
*CAP
1 *532:C 0.000112703
2 *534:B2 0.00010093
3 *531:X 0.000156098
4 *60:10 0.000369731
5 *532:C *533:B1 8.35068e-05
6 *532:C *152:19 2.61042e-05
7 *532:C *174:22 0.000178906
8 *534:B2 *451:A 8.52883e-05
9 *534:B2 *451:B_N 2.6906e-05
10 *534:B2 *534:B1 1.85674e-05
11 *534:B2 *174:22 4.66608e-05
12 *60:10 *531:A 4.6368e-06
13 *60:10 *152:19 5.88634e-05
*RES
1 *531:X *60:10 5.775 
2 *60:10 *534:B2 6.06 
3 *60:10 *532:C 5.925 
*END

*D_NET *61 0.000609174
*CONN
*I *533:B1 I *D sky130_fd_sc_hd__a31o_1
*I *532:X O *D sky130_fd_sc_hd__and3_1
*CAP
1 *533:B1 0.000159567
2 *532:X 0.000159567
3 *533:B1 *152:19 0.00011099
4 *533:B1 *152:28 4.77719e-05
5 *533:B1 *173:31 4.77719e-05
6 *532:C *533:B1 8.35068e-05
*RES
1 *532:X *533:B1 9.825 
*END

*D_NET *62 0.00190282
*CONN
*I *536:B1 I *D sky130_fd_sc_hd__a2111oi_1
*I *533:X O *D sky130_fd_sc_hd__a31o_1
*CAP
1 *536:B1 0.000649891
2 *533:X 0.000649891
3 *536:B1 *461:A1_N 2.68464e-05
4 *536:B1 *533:A3 2.88513e-05
5 *536:B1 *536:C1 0.000409938
6 *536:B1 *536:D1 0.000123225
7 *536:B1 *89:56 1.4174e-05
*RES
1 *533:X *536:B1 16.275 
*END

*D_NET *63 0.0018428
*CONN
*I *536:C1 I *D sky130_fd_sc_hd__a2111oi_1
*I *534:X O *D sky130_fd_sc_hd__a22o_1
*CAP
1 *536:C1 0.000291153
2 *534:X 0.000291153
3 *536:C1 *435:B2 0
4 *536:C1 *461:A2_N 1.88656e-05
5 *536:C1 *533:A3 0.000213854
6 *536:C1 *535:A 4.82919e-05
7 *536:C1 *536:D1 0.000123225
8 *536:C1 *550:A 0.000217015
9 *536:C1 *89:56 0.00015896
10 *536:C1 *157:75 0
11 *536:C1 *173:37 7.03425e-05
12 *536:B1 *536:C1 0.000409938
*RES
1 *534:X *536:C1 15.825 
*END

*D_NET *64 0.000291549
*CONN
*I *536:D1 I *D sky130_fd_sc_hd__a2111oi_1
*I *535:Y O *D sky130_fd_sc_hd__nor2_1
*CAP
1 *536:D1 2.25496e-05
2 *535:Y 2.25496e-05
3 *536:B1 *536:D1 0.000123225
4 *536:C1 *536:D1 0.000123225
*RES
1 *535:Y *536:D1 4.34 
*END

*D_NET *65 0.00297925
*CONN
*I *582:A I *D sky130_fd_sc_hd__clkbuf_1
*I *536:Y O *D sky130_fd_sc_hd__a2111oi_1
*CAP
1 *582:A 0.000842294
2 *536:Y 0.000842294
3 *582:A *487:A1 0.000175589
4 *582:A *487:A3 0.000174587
5 *582:A *488:A2_N 4.77807e-05
6 *582:A *488:B2 0.000309081
7 *582:A *490:B1 4.77769e-05
8 *582:A *521:A1 8.66466e-06
9 *582:A *536:A1 6.1357e-05
10 *582:A *536:A2 8.65961e-05
11 *582:A *87:14 0
12 *582:A *89:56 3.96653e-05
13 *582:A *109:57 3.23047e-05
14 *582:A *169:10 0.000132258
15 *582:A *169:57 0.000103556
16 *582:A *170:45 7.54454e-05
*RES
1 *536:Y *582:A 22.71 
*END

*D_NET *66 0.00159753
*CONN
*I *545:A1 I *D sky130_fd_sc_hd__o31a_1
*I *544:A1 I *D sky130_fd_sc_hd__o21ai_1
*I *538:X O *D sky130_fd_sc_hd__and2b_1
*CAP
1 *545:A1 0.000178608
2 *544:A1 0.000133726
3 *538:X 0.000103644
4 *66:6 0.000415977
5 *544:A1 *548:C1 6.81315e-05
6 *544:A1 *579:A 4.66108e-05
7 *544:A1 *71:8 0
8 *544:A1 *150:14 2.49909e-05
9 *545:A1 *492:B1 6.28765e-05
10 *545:A1 *545:B1 1.56428e-05
11 *545:A1 *548:C1 0.000137571
12 *545:A1 *549:B1 0
13 *545:A1 *580:A 4.66108e-05
14 *545:A2 *544:A1 0.000157595
15 *55:16 *544:A1 0.000205544
*RES
1 *538:X *66:6 2.74 
2 *66:6 *544:A1 9.47 
3 *66:6 *545:A1 8.825 
*END

*D_NET *67 0.00152041
*CONN
*I *546:B1 I *D sky130_fd_sc_hd__a22oi_1
*I *541:A I *D sky130_fd_sc_hd__nand2_1
*I *539:X O *D sky130_fd_sc_hd__or2_1
*CAP
1 *546:B1 0.000123
2 *541:A 3.95687e-05
3 *539:X 0.000114138
4 *67:12 0.000276707
5 *541:A *541:B 4.82863e-05
6 *541:A *546:A1 4.60584e-05
7 *541:A *152:59 0.0001289
8 *546:B1 *541:B 0.000107205
9 *546:B1 *546:A1 5.06066e-05
10 *546:B1 *546:A2 6.89365e-05
11 *546:B1 *546:B2 3.13354e-05
12 *546:B1 *152:59 0.000300495
13 *67:12 *540:B 4.99619e-05
14 *67:12 *546:A1 0
15 *67:12 *80:14 0.00013521
16 *67:12 *152:59 0
*RES
1 *539:X *67:12 7.685 
2 *67:12 *541:A 3.1 
3 *67:12 *546:B1 5.53 
*END

*D_NET *68 0.00177854
*CONN
*I *547:B1 I *D sky130_fd_sc_hd__o221a_1
*I *541:B I *D sky130_fd_sc_hd__nand2_1
*I *540:Y O *D sky130_fd_sc_hd__nand2_1
*CAP
1 *547:B1 0.000202633
2 *541:B 4.11347e-05
3 *540:Y 7.49875e-05
4 *68:10 0.000318755
5 *541:B *546:A1 0.000155491
6 *547:B1 *517:B 5.2431e-05
7 *547:B1 *547:A1 0.000205598
8 *547:B1 *547:B2 2.86975e-05
9 *547:B1 *548:B1 1.14192e-05
10 *547:B1 *549:B1 6.21365e-05
11 *547:B1 *80:14 1.28996e-05
12 *547:B1 *94:14 0.000174674
13 *547:B1 *173:53 2.56854e-05
14 *68:10 *547:A1 0.000114492
15 *68:10 *94:14 0.000114492
16 *68:10 *174:36 2.75229e-05
17 *541:A *541:B 4.82863e-05
18 *546:B1 *541:B 0.000107205
*RES
1 *540:Y *68:10 5.43 
2 *68:10 *541:B 5.085 
3 *68:10 *547:B1 9.105 
*END

*D_NET *69 0.00164427
*CONN
*I *548:A2 I *D sky130_fd_sc_hd__o211a_1
*I *543:A I *D sky130_fd_sc_hd__xnor2_1
*I *541:Y O *D sky130_fd_sc_hd__nand2_1
*CAP
1 *548:A2 9.20223e-05
2 *543:A 0.000531829
3 *541:Y 0
4 *69:4 0.000623851
5 *543:A *546:A1 2.66586e-05
6 *543:A *94:40 1.64141e-05
7 *543:A *152:59 0.000163204
8 *548:A2 *548:C1 5.20249e-05
9 *548:A2 *80:14 2.61744e-05
10 *54:8 *543:A 0.000112087
*RES
1 *541:Y *69:4 1.6 
2 *69:4 *543:A 13.265 
3 *69:4 *548:A2 7.235 
*END

*D_NET *70 0.00032505
*CONN
*I *543:B I *D sky130_fd_sc_hd__xnor2_1
*I *542:X O *D sky130_fd_sc_hd__o31a_1
*CAP
1 *543:B 3.36378e-05
2 *542:X 3.36378e-05
3 *543:B *524:A2 2.69153e-05
4 *543:B *94:27 7.11365e-05
5 *542:A3 *543:B 0.000159722
*RES
1 *542:X *543:B 4.685 
*END

*D_NET *71 0.00217799
*CONN
*I *544:B1 I *D sky130_fd_sc_hd__o21ai_1
*I *545:A3 I *D sky130_fd_sc_hd__o31a_1
*I *543:Y O *D sky130_fd_sc_hd__xnor2_1
*CAP
1 *544:B1 0.000147568
2 *545:A3 0.000138681
3 *543:Y 0.000162316
4 *71:8 0.000448565
5 *544:B1 *549:A1 0
6 *544:B1 *579:A 9.66106e-05
7 *544:B1 *580:A 0
8 *544:B1 *94:40 0.000200648
9 *544:B1 *150:14 0.000164874
10 *545:A3 *545:B1 4.82863e-05
11 *545:A3 *549:A1 2.50602e-05
12 *545:A3 *580:A 1.34594e-05
13 *71:8 *548:C1 0
14 *71:8 *94:40 0.000441414
15 *71:8 *173:70 0.000127313
16 *544:A1 *71:8 0
17 *55:16 *544:B1 0
18 *55:16 *545:A3 0.000163199
19 *55:16 *71:8 0
*RES
1 *543:Y *71:8 8.805 
2 *71:8 *545:A3 6.465 
3 *71:8 *544:B1 7.845 
*END

*D_NET *72 0.00101787
*CONN
*I *549:A1 I *D sky130_fd_sc_hd__a21oi_1
*I *544:Y O *D sky130_fd_sc_hd__o21ai_1
*CAP
1 *549:A1 0.000318172
2 *544:Y 0.000318172
3 *549:A1 *552:C 1.16578e-05
4 *549:A1 *580:A 0.000344805
5 *544:B1 *549:A1 0
6 *545:A3 *549:A1 2.50602e-05
*RES
1 *544:Y *549:A1 11.625 
*END

*D_NET *73 9.0598e-05
*CONN
*I *549:A2 I *D sky130_fd_sc_hd__a21oi_1
*I *545:X O *D sky130_fd_sc_hd__o31a_1
*CAP
1 *549:A2 1.11303e-05
2 *545:X 1.11303e-05
3 *549:A2 *545:B1 1.83756e-05
4 *549:A2 *580:A 4.99619e-05
*RES
1 *545:X *549:A2 3.65 
*END

*D_NET *74 0.000810037
*CONN
*I *547:C1 I *D sky130_fd_sc_hd__o221a_1
*I *546:Y O *D sky130_fd_sc_hd__a22oi_1
*CAP
1 *547:C1 0.000209924
2 *546:Y 0.000209924
3 *547:C1 *517:B 6.97733e-05
4 *547:C1 *547:B2 9.36151e-05
5 *547:C1 *109:31 6.4816e-05
6 *547:C1 *152:59 0.000161985
*RES
1 *546:Y *547:C1 11.115 
*END

*D_NET *75 0.000487806
*CONN
*I *548:B1 I *D sky130_fd_sc_hd__o211a_1
*I *547:X O *D sky130_fd_sc_hd__o221a_1
*CAP
1 *548:B1 0.000134474
2 *547:X 0.000134474
3 *548:B1 *547:A1 8.34281e-06
4 *548:B1 *548:A1 0.000119873
5 *548:B1 *548:C1 3.14427e-05
6 *548:B1 *549:B1 4.77807e-05
7 *547:B1 *548:B1 1.14192e-05
*RES
1 *547:X *548:B1 5.735 
*END

*D_NET *76 0.00161862
*CONN
*I *549:B1 I *D sky130_fd_sc_hd__a21oi_1
*I *548:X O *D sky130_fd_sc_hd__o211a_1
*CAP
1 *549:B1 0.000365531
2 *548:X 0.000365531
3 *549:B1 *492:B1 0.000207021
4 *549:B1 *94:14 0.000111293
5 *549:B1 *170:16 0.000459324
6 *522:B1 *549:B1 0
7 *545:A1 *549:B1 0
8 *547:B1 *549:B1 6.21365e-05
9 *548:B1 *549:B1 4.77807e-05
*RES
1 *548:X *549:B1 16.095 
*END

*D_NET *77 0.00224839
*CONN
*I *551:C I *D sky130_fd_sc_hd__or3_4
*I *550:X O *D sky130_fd_sc_hd__or3_4
*CAP
1 *551:C 0.00060919
2 *550:X 0.00060919
3 *551:C *491:A1 0.00015639
4 *551:C *491:A2 0.000114492
5 *551:C *551:A 8.49205e-05
6 *551:C *552:B 0.00017265
7 *551:C *552:D 0.000278952
8 *551:C *577:A 8.49205e-05
9 *551:C *92:82 6.33103e-05
10 *551:C *162:6 4.82863e-05
11 *551:C *170:92 2.60908e-05
*RES
1 *550:X *551:C 19.32 
*END

*D_NET *78 0.000753812
*CONN
*I *552:D I *D sky130_fd_sc_hd__nor4_4
*I *551:X O *D sky130_fd_sc_hd__or3_4
*CAP
1 *552:D 8.08405e-05
2 *551:X 8.08405e-05
3 *552:D *477:A 2.30797e-05
4 *552:D *552:B 0.000122331
5 *552:D *149:50 0.000157602
6 *552:D *170:92 1.01661e-05
7 *551:C *552:D 0.000278952
*RES
1 *551:X *552:D 10.485 
*END

*D_NET *79 0.0112505
*CONN
*I *431:B1 I *D sky130_fd_sc_hd__a2bb2o_1
*I *491:A1 I *D sky130_fd_sc_hd__o22a_1
*I *505:B2 I *D sky130_fd_sc_hd__o32a_1
*I *548:C1 I *D sky130_fd_sc_hd__o211a_1
*I *529:B1 I *D sky130_fd_sc_hd__a21o_1
*I *522:A1 I *D sky130_fd_sc_hd__o21a_1
*I *429:X O *D sky130_fd_sc_hd__or2_2
*CAP
1 *431:B1 0.000123734
2 *491:A1 0.000226913
3 *505:B2 2.13533e-05
4 *548:C1 0.000647586
5 *529:B1 5.15838e-05
6 *522:A1 8.9777e-05
7 *429:X 0
8 *79:43 0.00112684
9 *79:41 0.00068326
10 *79:12 0.000482611
11 *79:8 0.000967637
12 *79:4 0.000705863
13 *431:B1 *470:B1 0.000135889
14 *431:B1 *156:22 0.000124895
15 *491:A1 *491:A2 1.16578e-05
16 *491:A1 *552:B 1.61831e-05
17 *491:A1 *92:82 0
18 *491:A1 *148:30 0.000106784
19 *491:A1 *149:50 0.000102346
20 *505:B2 *171:60 2.10214e-05
21 *522:A1 *545:B1 0.000172064
22 *522:A1 *552:C 0.000192997
23 *522:A1 *163:8 0.000122701
24 *548:C1 *492:B1 0.00021087
25 *548:C1 *537:B1 0
26 *548:C1 *548:A1 5.83121e-06
27 *548:C1 *80:14 2.75092e-05
28 *548:C1 *173:53 0.000159722
29 *548:C1 *173:70 0
30 *79:8 *470:B1 0
31 *79:8 *473:A3 8.55624e-05
32 *79:8 *473:B1 1.87418e-05
33 *79:8 *485:A 0.000197434
34 *79:8 *536:A2 0.000138368
35 *79:8 *84:31 4.83241e-05
36 *79:8 *148:30 0.000101317
37 *79:8 *149:37 3.18891e-05
38 *79:8 *149:50 0.000135095
39 *79:8 *152:59 9.27736e-05
40 *79:8 *168:20 0
41 *79:8 *169:10 0.000303297
42 *79:8 *169:57 0.000340741
43 *79:12 *552:C 0.000827914
44 *79:12 *163:8 0.000817926
45 *79:41 *493:B1 0.000234838
46 *79:41 *493:B2 1.75875e-05
47 *79:41 *494:A2 2.8694e-05
48 *79:41 *505:A1 8.696e-05
49 *79:41 *505:A2 3.10059e-05
50 *79:41 *537:B1 2.59981e-05
51 *79:41 *171:24 1.75023e-05
52 *79:41 *171:36 2.12738e-05
53 *79:41 *171:64 3.81581e-05
54 *79:43 *171:60 6.90044e-05
55 *522:B1 *522:A1 8.35106e-05
56 *527:B1 *529:B1 1.56428e-05
57 *527:B1 *79:43 3.45679e-05
58 *529:A2 *529:B1 0
59 *537:A2 *548:C1 7.23602e-05
60 *544:A1 *548:C1 6.81315e-05
61 *545:A1 *548:C1 0.000137571
62 *545:A2 *548:C1 0.000159269
63 *548:A2 *548:C1 5.20249e-05
64 *548:B1 *548:C1 3.14427e-05
65 *551:C *491:A1 0.00015639
66 *56:10 *548:C1 0.000116853
67 *56:12 *548:C1 7.47145e-05
68 *71:8 *548:C1 0
*RES
1 *429:X *79:4 1.6 
2 *79:4 *79:8 16.895 
3 *79:8 *79:12 9.695 
4 *79:12 *522:A1 4.93 
5 *79:12 *79:41 13.385 
6 *79:41 *79:43 6.66 
7 *79:43 *529:B1 2.41 
8 *79:43 *548:C1 20.3 
9 *79:41 *505:B2 2.05 
10 *79:8 *491:A1 8.445 
11 *79:4 *431:B1 8.375 
*END

*D_NET *80 0.0103425
*CONN
*I *431:B2 I *D sky130_fd_sc_hd__a2bb2o_1
*I *470:B1 I *D sky130_fd_sc_hd__a21oi_1
*I *492:B1 I *D sky130_fd_sc_hd__a21oi_1
*I *548:A1 I *D sky130_fd_sc_hd__o211a_1
*I *430:X O *D sky130_fd_sc_hd__or3b_2
*CAP
1 *431:B2 0
2 *470:B1 0.000528576
3 *492:B1 0.000521278
4 *548:A1 3.62818e-05
5 *430:X 0
6 *80:52 0.00141279
7 *80:14 0.00150125
8 *80:4 0.00182791
9 *470:B1 *440:B 0.000113615
10 *470:B1 *462:A2 6.14605e-05
11 *470:B1 *471:B2 1.14192e-05
12 *470:B1 *472:A2_N 0.00011121
13 *470:B1 *473:B1 2.92298e-05
14 *470:B1 *489:B2 2.97339e-05
15 *470:B1 *578:A 0
16 *470:B1 *84:31 0.000365902
17 *470:B1 *84:59 0.000254946
18 *470:B1 *109:57 1.67131e-05
19 *470:B1 *146:35 6.95405e-05
20 *470:B1 *149:31 0.000184757
21 *470:B1 *168:47 0
22 *470:B1 *175:41 0
23 *492:B1 *545:B1 0.000251692
24 *492:B1 *552:C 0.000179721
25 *492:B1 *94:14 7.94942e-05
26 *492:B1 *165:8 4.82863e-05
27 *548:A1 *547:A1 5.83121e-06
28 *548:A1 *173:53 3.70119e-05
29 *80:14 *436:C 0.000543428
30 *80:14 *547:A1 0.000308229
31 *80:14 *89:14 0
32 *80:14 *94:14 4.58262e-06
33 *80:14 *152:59 0
34 *80:14 *153:12 0
35 *80:14 *154:6 4.60584e-05
36 *80:14 *154:19 4.13171e-05
37 *80:14 *154:30 4.84393e-05
38 *80:14 *154:54 0.00011562
39 *80:14 *170:16 0
40 *80:52 *436:B 2.46089e-05
41 *80:52 *436:C 0.000314557
42 *80:52 *437:A 0
43 *80:52 *87:8 3.45679e-05
44 *80:52 *146:14 9.80032e-06
45 result[0] *80:52 7.58604e-05
46 *431:B1 *470:B1 0.000135889
47 *522:A2 *492:B1 0.00015264
48 *545:A1 *492:B1 6.28765e-05
49 *547:B1 *80:14 1.28996e-05
50 *548:A2 *80:14 2.61744e-05
51 *548:B1 *548:A1 0.000119873
52 *548:C1 *492:B1 0.00021087
53 *548:C1 *548:A1 5.83121e-06
54 *548:C1 *80:14 2.75092e-05
55 *549:B1 *492:B1 0.000207021
56 *562:A *80:14 0
57 *67:12 *80:14 0.00013521
58 *79:8 *470:B1 0
*RES
1 *430:X *80:4 1.6 
2 *80:4 *80:14 19.25 
3 *80:14 *548:A1 4.74 
4 *80:14 *492:B1 21.16 
5 *80:4 *80:52 17.215 
6 *80:52 *470:B1 19.55 
7 *80:52 *431:B2 1.6 
*END

*D_NET *81 0.000698152
*CONN
*I *432:B1 I *D sky130_fd_sc_hd__a21oi_1
*I *431:X O *D sky130_fd_sc_hd__a2bb2o_1
*CAP
1 *432:B1 0.00015835
2 *431:X 0.00015835
3 *432:B1 *432:A1 0.00012195
4 *432:B1 *432:A2 3.66286e-05
5 *432:B1 *573:A 0.000115144
6 *432:B1 *578:A 1.94636e-05
7 *432:B1 *146:14 8.8266e-05
*RES
1 *431:X *432:B1 11.025 
*END

*D_NET *82 0.00123497
*CONN
*I *441:A I *D sky130_fd_sc_hd__or4_1
*I *432:Y O *D sky130_fd_sc_hd__a21oi_1
*CAP
1 *441:A 0.000415534
2 *432:Y 0.000415534
3 *441:A *441:B 5.33085e-05
4 *441:A *573:A 0.000232105
5 *441:A *578:A 0.000118491
*RES
1 *432:Y *441:A 12.945 
*END

*D_NET *83 0.00326669
*CONN
*I *572:A I *D sky130_fd_sc_hd__clkbuf_2
*I *494:A3 I *D sky130_fd_sc_hd__a31o_1
*I *433:Y O *D sky130_fd_sc_hd__nor3b_1
*CAP
1 *572:A 0.000198252
2 *494:A3 0.000643718
3 *433:Y 0
4 *83:4 0.00084197
5 *494:A3 *494:A2 4.99619e-05
6 *494:A3 *494:B1 8.49205e-05
7 *494:A3 *496:A2 0.000165964
8 *494:A3 *505:A1 1.16578e-05
9 *494:A3 *505:A3 0.000163347
10 *494:A3 *552:B 2.896e-05
11 *494:A3 *84:10 0.0003074
12 *494:A3 *84:89 0.000312869
13 *494:A3 *87:27 0
14 *494:A3 *92:38 5.91812e-05
15 *494:A3 *92:61 7.08403e-05
16 *494:A3 *171:64 7.75981e-05
17 *572:A *174:36 0.000139257
18 *520:B1 *494:A3 0.000110791
*RES
1 *433:Y *83:4 1.6 
2 *83:4 *494:A3 21.305 
3 *83:4 *572:A 4.135 
*END

*D_NET *84 0.0122168
*CONN
*I *496:A2 I *D sky130_fd_sc_hd__a221o_1
*I *488:B1 I *D sky130_fd_sc_hd__a2bb2o_1
*I *473:B1 I *D sky130_fd_sc_hd__a32o_1
*I *462:A2 I *D sky130_fd_sc_hd__a221o_1
*I *534:A2 I *D sky130_fd_sc_hd__a22o_1
*I *435:B1 I *D sky130_fd_sc_hd__a32o_1
*I *519:B1 I *D sky130_fd_sc_hd__a2bb2o_1
*I *434:X O *D sky130_fd_sc_hd__and3_2
*CAP
1 *496:A2 0.000138432
2 *488:B1 2.97624e-05
3 *473:B1 0.000119738
4 *462:A2 0.000662713
5 *534:A2 4.54098e-05
6 *435:B1 0.000288492
7 *519:B1 0
8 *434:X 0.000425101
9 *84:89 0.000292916
10 *84:59 0.000869239
11 *84:31 0.000682736
12 *84:25 0.000559471
13 *84:16 0.000305119
14 *84:10 0.000731092
15 *435:B1 *435:A1 1.90932e-05
16 *435:B1 *461:B2 6.52111e-05
17 *435:B1 *534:B1 0.00011852
18 *435:B1 *146:43 7.23602e-05
19 *435:B1 *175:27 2.68464e-05
20 *435:B1 *175:31 8.9697e-05
21 *435:B1 *175:67 1.1561e-05
22 *462:A2 *454:A 1.15276e-05
23 *462:A2 *458:A2 0
24 *462:A2 *462:A1 0.000330149
25 *462:A2 *462:B2 2.3011e-05
26 *462:A2 *470:A2 2.01737e-05
27 *462:A2 *471:B2 4.89395e-05
28 *462:A2 *149:31 8.73389e-06
29 *462:A2 *168:39 3.06569e-06
30 *462:A2 *168:43 8.28018e-06
31 *462:A2 *168:47 6.04372e-05
32 *473:B1 *473:A3 0.000210607
33 *473:B1 *473:B2 8.53011e-05
34 *473:B1 *489:B2 5.13924e-05
35 *473:B1 *536:A2 3.01629e-05
36 *473:B1 *109:61 3.93775e-05
37 *473:B1 *148:30 3.31611e-05
38 *473:B1 *149:31 1.81281e-05
39 *488:B1 *488:B2 0.000158564
40 *488:B1 *109:57 0.000158564
41 *496:A2 *87:52 0.000286821
42 *496:A2 *92:38 9.23252e-05
43 *496:A2 *170:29 0.000161757
44 *534:A2 *534:B1 0.000181617
45 *534:A2 *174:36 0.000192493
46 *84:10 *433:C_N 0
47 *84:10 *453:B 0.000201508
48 *84:10 *102:12 0.000590935
49 *84:10 *155:99 2.06762e-05
50 *84:16 *487:A1 4.89395e-05
51 *84:16 *519:A2_N 8.53011e-05
52 *84:16 *536:A1 2.0187e-05
53 *84:16 *172:61 0.000101704
54 *84:16 *173:45 2.88357e-05
55 *84:16 *173:53 3.60237e-05
56 *84:25 *487:A1 8.46818e-05
57 *84:25 *169:14 0.000155608
58 *84:25 *173:45 5.56333e-05
59 *84:31 *534:B1 4.66108e-05
60 *84:31 *536:A2 0.000236855
61 *84:31 *174:36 0.000531735
62 *84:59 *536:A2 0.000249847
63 *84:89 *92:12 1.0397e-05
64 *84:89 *92:38 9.06152e-05
65 *84:89 *102:12 0.000131017
66 *470:B1 *462:A2 6.14605e-05
67 *470:B1 *473:B1 2.92298e-05
68 *470:B1 *84:31 0.000365902
69 *470:B1 *84:59 0.000254946
70 *494:A3 *496:A2 0.000165964
71 *494:A3 *84:10 0.0003074
72 *494:A3 *84:89 0.000312869
73 *520:B1 *84:16 0.000156771
74 *79:8 *473:B1 1.87418e-05
75 *79:8 *84:31 4.83241e-05
*RES
1 *434:X *84:10 12.765 
2 *84:10 *84:16 6.26 
3 *84:16 *519:B1 1.6 
4 *84:16 *84:25 4.52 
5 *84:25 *84:31 11.375 
6 *84:31 *435:B1 10.9175 
7 *84:31 *534:A2 3.43 
8 *84:25 *84:59 3.165 
9 *84:59 *462:A2 12.4987 
10 *84:59 *473:B1 7.3125 
11 *84:10 *84:89 3.93 
12 *84:89 *488:B1 5.085 
13 *84:89 *496:A2 8.445 
*END

*D_NET *85 0.000704906
*CONN
*I *441:B I *D sky130_fd_sc_hd__or4_1
*I *435:X O *D sky130_fd_sc_hd__a32o_1
*CAP
1 *441:B 0.000200838
2 *435:X 0.000200838
3 *441:B *438:B1 2.72056e-05
4 *441:B *441:C 2.75229e-05
5 *441:B *534:B1 5.8678e-05
6 *441:B *578:A 5.24879e-05
7 *441:B *146:39 8.40269e-05
8 *441:B *175:10 0
9 *441:B *175:14 0
10 *441:A *441:B 5.33085e-05
*RES
1 *435:X *441:B 10.695 
*END

*D_NET *86 0.000603778
*CONN
*I *437:A I *D sky130_fd_sc_hd__buf_2
*I *436:X O *D sky130_fd_sc_hd__and3b_1
*CAP
1 *437:A 0.000242069
2 *436:X 0.000242069
3 *437:A *146:14 0.00011964
4 *80:52 *437:A 0
*RES
1 *436:X *437:A 10.665 
*END

*D_NET *87 0.0127058
*CONN
*I *438:B1 I *D sky130_fd_sc_hd__o21a_1
*I *534:B1 I *D sky130_fd_sc_hd__a22o_1
*I *493:B1 I *D sky130_fd_sc_hd__o22a_1
*I *471:B1 I *D sky130_fd_sc_hd__o22a_1
*I *462:B1 I *D sky130_fd_sc_hd__a221o_1
*I *490:A1 I *D sky130_fd_sc_hd__a211o_1
*I *518:B2 I *D sky130_fd_sc_hd__a2bb2o_1
*I *546:B2 I *D sky130_fd_sc_hd__a22oi_1
*I *437:X O *D sky130_fd_sc_hd__buf_2
*CAP
1 *438:B1 7.72367e-05
2 *534:B1 0.000274726
3 *493:B1 0.000294519
4 *471:B1 3.34736e-05
5 *462:B1 0.000262812
6 *490:A1 0
7 *518:B2 4.67825e-05
8 *546:B2 0.00016377
9 *437:X 6.24124e-05
10 *87:110 0.00138674
11 *87:69 0.000819173
12 *87:52 0.000876204
13 *87:44 0.000917812
14 *87:27 0.000567187
15 *87:14 0.000947938
16 *87:8 0.00163093
17 *438:B1 *438:A2 1.58871e-05
18 *438:B1 *442:A 3.00381e-05
19 *438:B1 *550:A 7.96104e-06
20 *438:B1 *156:22 4.99619e-05
21 *462:B1 *457:A 0.000191335
22 *462:B1 *462:C1 3.60024e-06
23 *462:B1 *471:A1 3.45117e-05
24 *462:B1 *550:A 0
25 *462:B1 *157:38 0.000112279
26 *471:B1 *457:A 4.66108e-05
27 *471:B1 *474:A 4.7072e-06
28 *493:B1 *494:A2 0.000122797
29 *493:B1 *537:B1 8.02342e-05
30 *493:B1 *172:39 0
31 *518:B2 *105:14 0.000120645
32 *534:B1 *435:A3 2.42236e-05
33 *534:B1 *451:A 0.00012995
34 *534:B1 *550:A 2.05837e-05
35 *534:B1 *578:A 2.33678e-05
36 *534:B1 *146:43 4.65643e-05
37 *534:B1 *174:22 1.31227e-05
38 *534:B1 *174:36 2.20014e-05
39 *534:B1 *175:67 0.000120186
40 *546:B2 *546:A2 0.000138909
41 *546:B2 *152:59 0.000268086
42 *87:14 *89:56 8.53113e-06
43 *87:14 *92:12 0.000160536
44 *87:14 *102:12 4.2857e-05
45 *87:14 *152:59 0.000239822
46 *87:14 *169:10 0
47 *87:44 *495:B 7.20529e-05
48 *87:44 *537:B1 2.47394e-05
49 *87:44 *171:64 1.48851e-05
50 *87:52 *490:A2 4.77807e-05
51 *87:52 *496:A1 3.116e-05
52 *87:52 *170:29 0.000113162
53 *87:69 *473:A3 1.60006e-05
54 *87:69 *473:B2 0.000100061
55 *87:69 *474:A 4.76437e-05
56 *87:69 *474:C 4.82863e-05
57 *87:69 *490:A2 9.55262e-06
58 *87:69 *490:C1 4.77769e-05
59 *87:69 *148:30 0.000281928
60 *87:69 *170:29 4.82863e-05
61 *87:69 *170:70 7.2875e-05
62 *87:110 *461:A2_N 0
63 *435:B1 *534:B1 0.00011852
64 *441:B *438:B1 2.72056e-05
65 *441:B *534:B1 5.8678e-05
66 *494:A3 *87:27 0
67 *496:A2 *87:52 0.000286821
68 *518:A2_N *518:B2 3.50152e-06
69 *518:B1 *518:B2 4.77719e-05
70 *520:A2 *518:B2 2.20014e-05
71 *520:A3 *518:B2 3.57349e-05
72 *521:C1 *87:44 3.03465e-05
73 *534:A2 *534:B1 0.000181617
74 *534:B2 *534:B1 1.85674e-05
75 *546:B1 *546:B2 3.13354e-05
76 *582:A *87:14 0
77 *47:10 *87:27 9.03081e-05
78 *47:10 *87:44 2.01779e-05
79 *79:41 *493:B1 0.000234838
80 *80:52 *87:8 3.45679e-05
81 *84:31 *534:B1 4.66108e-05
*RES
1 *437:X *87:8 4.395 
2 *87:8 *87:14 11.36 
3 *87:14 *546:B2 6.205 
4 *87:14 *87:27 5.93 
5 *87:27 *518:B2 5.1 
6 *87:27 *87:44 4.485 
7 *87:44 *87:52 8.345 
8 *87:52 *490:A1 1.6 
9 *87:52 *87:69 9.93 
10 *87:69 *462:B1 9.77 
11 *87:69 *471:B1 2.395 
12 *87:44 *493:B1 9.435 
13 *87:8 *87:110 2.66947 
14 *87:110 *534:B1 10.5675 
15 *87:110 *438:B1 5.2425 
*END

*D_NET *88 0.000281765
*CONN
*I *441:C I *D sky130_fd_sc_hd__or4_1
*I *438:X O *D sky130_fd_sc_hd__o21a_1
*CAP
1 *441:C 5.77045e-05
2 *438:X 5.77045e-05
3 *441:C *442:A 4.99619e-05
4 *441:C *156:22 8.88715e-05
5 *441:B *441:C 2.75229e-05
*RES
1 *438:X *441:C 4.685 
*END

*D_NET *89 0.0122121
*CONN
*I *488:A2_N I *D sky130_fd_sc_hd__a2bb2o_1
*I *519:A2_N I *D sky130_fd_sc_hd__a2bb2o_1
*I *535:B I *D sky130_fd_sc_hd__nor2_1
*I *461:A2_N I *D sky130_fd_sc_hd__a2bb2o_1
*I *472:A2_N I *D sky130_fd_sc_hd__a2bb2o_1
*I *440:B I *D sky130_fd_sc_hd__nor2_1
*I *495:B I *D sky130_fd_sc_hd__nor2_1
*I *547:A2 I *D sky130_fd_sc_hd__o221a_1
*I *439:Y O *D sky130_fd_sc_hd__nand3b_4
*CAP
1 *488:A2_N 0.000106575
2 *519:A2_N 1.53142e-05
3 *535:B 0
4 *461:A2_N 0.000563298
5 *472:A2_N 0.000428862
6 *440:B 0.000293087
7 *495:B 2.20988e-05
8 *547:A2 0
9 *439:Y 0.000712095
10 *89:58 0.00128525
11 *89:56 0.00035086
12 *89:44 0.000538321
13 *89:40 0.000609145
14 *89:27 0.000921967
15 *89:14 0.00128154
16 *440:B *435:A3 0
17 *440:B *578:A 0
18 *440:B *146:35 4.82919e-05
19 *440:B *146:39 7.55165e-05
20 *440:B *173:45 7.9642e-06
21 *461:A2_N *435:B2 6.16226e-06
22 *472:A2_N *462:A1 2.0187e-05
23 *472:A2_N *470:A2 2.0851e-06
24 *472:A2_N *471:A1 0.000119873
25 *472:A2_N *578:A 0.000173279
26 *472:A2_N *149:14 0.000197862
27 *472:A2_N *149:31 1.64141e-05
28 *472:A2_N *168:47 8.35157e-05
29 *472:A2_N *173:45 0.000172351
30 *488:A2_N *491:B1 7.22565e-05
31 *488:A2_N *109:57 0.000109267
32 *488:A2_N *170:35 4.28112e-06
33 *519:A2_N *536:A1 4.89395e-05
34 *519:A2_N *172:61 4.77807e-05
35 *89:14 *439:B 0.000306816
36 *89:14 *154:30 0
37 *89:14 *154:54 0
38 *89:14 *155:33 0.000233561
39 *89:14 *170:16 0.000460131
40 *89:27 *496:B1 2.747e-05
41 *89:27 *517:B 7.01303e-05
42 *89:27 *109:57 0.000193113
43 *89:27 *170:16 0.0002983
44 *89:40 *109:57 0.000489735
45 *89:44 *491:B1 7.03219e-05
46 *89:44 *92:12 4.65387e-05
47 *89:44 *92:38 4.96649e-05
48 *89:56 *536:A1 0.000372769
49 *89:56 *536:A2 2.55503e-05
50 *89:56 *92:12 7.0301e-05
51 *89:56 *152:59 0.000421073
52 *89:56 *173:37 0
53 *470:B1 *440:B 0.000113615
54 *470:B1 *472:A2_N 0.00011121
55 *521:C1 *495:B 7.20529e-05
56 *536:B1 *89:56 1.4174e-05
57 *536:C1 *461:A2_N 1.88656e-05
58 *536:C1 *89:56 0.00015896
59 *582:A *488:A2_N 4.77807e-05
60 *582:A *89:56 3.96653e-05
61 *80:14 *89:14 0
62 *84:16 *519:A2_N 8.53011e-05
63 *87:14 *89:56 8.53113e-06
64 *87:44 *495:B 7.20529e-05
65 *87:110 *461:A2_N 0
*RES
1 *439:Y *89:14 16.575 
2 *89:14 *547:A2 3.6 
3 *89:14 *89:27 10.265 
4 *89:27 *495:B 6.47 
5 *89:27 *89:40 4.59 
6 *89:40 *89:44 5.42 
7 *89:44 *89:56 11.195 
8 *89:56 *89:58 2 
9 *89:58 *440:B 9.24 
10 *89:58 *472:A2_N 17.155 
11 *89:58 *461:A2_N 5.68623 
12 *89:56 *535:B 1.6 
13 *89:44 *519:A2_N 4.395 
14 *89:40 *488:A2_N 7.715 
*END

*D_NET *90 0.000442982
*CONN
*I *441:D I *D sky130_fd_sc_hd__or4_1
*I *440:Y O *D sky130_fd_sc_hd__nor2_1
*CAP
1 *441:D 0.000115544
2 *440:Y 0.000115544
3 *441:D *146:39 4.82863e-05
4 *441:D *156:22 9.40338e-05
5 *441:D *175:41 6.95739e-05
*RES
1 *440:Y *441:D 9.33 
*END

*D_NET *91 0.000640234
*CONN
*I *442:A I *D sky130_fd_sc_hd__buf_1
*I *441:X O *D sky130_fd_sc_hd__or4_1
*CAP
1 *442:A 0.000224787
2 *441:X 0.000224787
3 *442:A *438:A2 2.86975e-05
4 *442:A *156:22 8.19622e-05
5 *438:B1 *442:A 3.00381e-05
6 *441:C *442:A 4.99619e-05
*RES
1 *441:X *442:A 7.025 
*END

*D_NET *92 0.013391
*CONN
*I *463:A1 I *D sky130_fd_sc_hd__a211o_1
*I *475:A1 I *D sky130_fd_sc_hd__a31o_1
*I *494:B1 I *D sky130_fd_sc_hd__a31o_1
*I *545:B1 I *D sky130_fd_sc_hd__o31a_1
*I *487:B1 I *D sky130_fd_sc_hd__a31o_1
*I *520:C1 I *D sky130_fd_sc_hd__a311o_1
*I *443:Y O *D sky130_fd_sc_hd__nor2_2
*CAP
1 *463:A1 0.000324713
2 *475:A1 0.000371258
3 *494:B1 6.38158e-05
4 *545:B1 0.000775702
5 *487:B1 0.000159936
6 *520:C1 6.19811e-05
7 *443:Y 0.000387555
8 *92:82 0.00155202
9 *92:61 0.0010512
10 *92:38 0.00119019
11 *92:14 0.000221917
12 *92:12 0.000670703
13 *463:A1 *446:A1 2.75229e-05
14 *463:A1 *446:A2 1.45801e-05
15 *463:A1 *452:A 4.64152e-05
16 *463:A1 *452:B 0.00033117
17 *463:A1 *463:A2 6.70134e-05
18 *463:A1 *463:C1 8.41307e-05
19 *463:A1 *94:93 0
20 *463:A1 *147:16 0.000202895
21 *475:A1 *449:B1 0
22 *475:A1 *468:B 0.000157659
23 *475:A1 *475:A2 0.000151911
24 *475:A1 *475:B1 0.000817306
25 *475:A1 *482:A 2.20014e-05
26 *475:A1 *95:14 0.000116158
27 *475:A1 *157:10 0
28 *475:A1 *157:38 0
29 *487:B1 *487:A2 5.25987e-05
30 *487:B1 *491:B1 5.11067e-05
31 *487:B1 *102:21 0.000296606
32 *487:B1 *102:42 0.000167612
33 *494:B1 *552:B 0.000197269
34 *520:C1 *520:A1 8.23457e-05
35 *520:C1 *102:21 4.66108e-05
36 *545:B1 *552:C 9.47267e-06
37 *545:B1 *580:A 6.9725e-05
38 *545:B1 *163:8 0.000455497
39 *545:B1 *165:8 9.05959e-05
40 *92:12 *102:12 0.000606165
41 *92:12 *156:40 4.60584e-05
42 *92:12 *156:53 0.000129422
43 *92:38 *491:B1 0
44 *92:61 *491:B1 0
45 *92:82 *446:A1 6.1357e-05
46 *92:82 *498:A2 0.000111285
47 *92:82 *498:A3 1.47347e-05
48 *92:82 *498:A4 0.000161529
49 *92:82 *552:B 0.000175381
50 *92:82 *161:10 4.98942e-05
51 *92:82 *170:92 0.000116853
52 *92:82 *175:69 8.95933e-05
53 *92:82 *175:77 8.8266e-05
54 *491:A1 *92:82 0
55 *492:B1 *545:B1 0.000251692
56 *494:A3 *494:B1 8.49205e-05
57 *494:A3 *92:38 5.91812e-05
58 *494:A3 *92:61 7.08403e-05
59 *496:A2 *92:38 9.23252e-05
60 *522:A1 *545:B1 0.000172064
61 *522:A2 *545:B1 4.66108e-05
62 *545:A1 *545:B1 1.56428e-05
63 *545:A3 *545:B1 4.82863e-05
64 *549:A2 *545:B1 1.83756e-05
65 *551:C *92:82 6.33103e-05
66 *84:89 *92:12 1.0397e-05
67 *84:89 *92:38 9.06152e-05
68 *87:14 *92:12 0.000160536
69 *89:44 *92:12 4.65387e-05
70 *89:44 *92:38 4.96649e-05
71 *89:56 *92:12 7.0301e-05
*RES
1 *443:Y *92:12 13.29 
2 *92:12 *92:14 2 
3 *92:14 *520:C1 2.74 
4 *92:14 *487:B1 6.36625 
5 *92:12 *92:38 5.97 
6 *92:38 *545:B1 16.98 
7 *92:38 *92:61 4.4 
8 *92:61 *494:B1 3.43 
9 *92:61 *92:82 16.75 
10 *92:82 *475:A1 15.62 
11 *92:82 *463:A1 9.025 
*END

*D_NET *93 0.000614257
*CONN
*I *445:A I *D sky130_fd_sc_hd__buf_6
*I *444:X O *D sky130_fd_sc_hd__or3b_4
*CAP
1 *445:A 0.000204619
2 *444:X 0.000204619
3 *445:A *434:B 0
4 *445:A *444:A 2.3249e-05
5 *445:A *460:A 7.89689e-05
6 *445:A *154:58 1.16854e-05
7 *445:A *155:64 5.83121e-06
8 *445:A *174:36 8.52845e-05
*RES
1 *444:X *445:A 11.145 
*END

*D_NET *94 0.0110209
*CONN
*I *465:B1 I *D sky130_fd_sc_hd__o21a_1
*I *446:A2 I *D sky130_fd_sc_hd__a21bo_1
*I *447:B I *D sky130_fd_sc_hd__nand3b_1
*I *476:A2 I *D sky130_fd_sc_hd__a21o_1
*I *498:B1 I *D sky130_fd_sc_hd__o41a_1
*I *507:A2 I *D sky130_fd_sc_hd__a21o_1
*I *524:A2 I *D sky130_fd_sc_hd__a21oi_1
*I *542:B1 I *D sky130_fd_sc_hd__o31a_1
*I *445:X O *D sky130_fd_sc_hd__buf_6
*CAP
1 *465:B1 0
2 *446:A2 5.04495e-05
3 *447:B 1.60703e-05
4 *476:A2 0
5 *498:B1 6.00628e-05
6 *507:A2 0
7 *524:A2 6.39049e-05
8 *542:B1 0
9 *445:X 0.000357785
10 *94:93 0.000338377
11 *94:79 0.000330887
12 *94:72 0.000122942
13 *94:55 0.00128198
14 *94:40 0.00158079
15 *94:27 0.000601509
16 *94:14 0.000472611
17 *446:A2 *446:A1 0.000158072
18 *446:A2 *147:16 0.000197529
19 *446:A2 *147:25 1.46828e-05
20 *446:A2 *175:69 3.57349e-05
21 *447:B *447:C 1.02153e-05
22 *447:B *147:25 2.28514e-05
23 *447:B *175:69 8.75488e-05
24 *498:B1 *477:A 9.26907e-06
25 *498:B1 *498:A4 1.32668e-05
26 *498:B1 *144:12 3.68682e-05
27 *498:B1 *148:22 0.000131408
28 *498:B1 *148:30 8.53113e-06
29 *524:A2 *151:27 0.000226749
30 *94:14 *546:A2 5.33085e-05
31 *94:14 *547:A1 1.26548e-05
32 *94:14 *151:36 0.000175792
33 *94:14 *170:16 0.000163224
34 *94:14 *174:36 4.99619e-05
35 *94:27 *542:A1 3.48594e-05
36 *94:27 *151:27 0.000163186
37 *94:27 *151:36 4.29365e-05
38 *94:40 *526:A 0.000164686
39 *94:40 *580:A 0
40 *94:40 *151:23 0
41 *94:55 *476:B1 1.4389e-05
42 *94:55 *507:B1 2.87867e-05
43 *94:55 *580:A 0
44 *94:55 *144:12 0.00199884
45 *94:55 *151:23 0
46 *94:72 *476:B1 2.30816e-05
47 *94:79 *476:B1 2.11084e-05
48 *94:93 *465:A2 8.14579e-05
49 *94:93 *96:12 0.000114492
50 *94:93 *147:25 5.61451e-05
51 *94:93 *147:27 0
52 *94:93 *175:77 0
53 *463:A1 *446:A2 1.45801e-05
54 *463:A1 *94:93 0
55 *492:B1 *94:14 7.94942e-05
56 *526:B *94:40 2.68875e-05
57 *529:A2 *94:55 0
58 *542:A3 *524:A2 5.49293e-05
59 *542:A3 *94:27 0.000132374
60 *543:A *94:40 1.64141e-05
61 *543:B *524:A2 2.69153e-05
62 *543:B *94:27 7.11365e-05
63 *544:B1 *94:40 0.000200648
64 *547:B1 *94:14 0.000174674
65 *549:B1 *94:14 0.000111293
66 *54:8 *94:40 0.000122014
67 *68:10 *94:14 0.000114492
68 *71:8 *94:40 0.000441414
69 *80:14 *94:14 4.58262e-06
*RES
1 *445:X *94:14 14.63 
2 *94:14 *542:B1 1.6 
3 *94:14 *94:27 3.945 
4 *94:27 *524:A2 3.79 
5 *94:27 *94:40 12.815 
6 *94:40 *507:A2 3.6 
7 *94:40 *94:55 23.165 
8 *94:55 *498:B1 7.43375 
9 *94:55 *94:72 1.155 
10 *94:72 *476:A2 1.6 
11 *94:72 *94:79 1.14 
12 *94:79 *94:93 9.07 
13 *94:93 *447:B 2.725 
14 *94:93 *446:A2 3.775 
15 *94:79 *465:B1 1.6 
*END

*D_NET *95 0.00122539
*CONN
*I *448:B I *D sky130_fd_sc_hd__and3_1
*I *449:A1 I *D sky130_fd_sc_hd__a21o_1
*I *446:X O *D sky130_fd_sc_hd__a21bo_1
*CAP
1 *448:B 0.00024562
2 *449:A1 0
3 *446:X 0.000158432
4 *95:14 0.000404052
5 *448:B *448:C 3.10979e-05
6 *448:B *449:A2 9.53428e-06
7 *448:B *449:B1 8.94167e-05
8 *95:14 *448:C 4.66108e-05
9 *95:14 *147:16 0.000124471
10 *95:14 *157:38 0
11 *475:A1 *95:14 0.000116158
*RES
1 *446:X *95:14 8.57 
2 *95:14 *449:A1 1.6 
3 *95:14 *448:B 4.99 
*END

*D_NET *96 0.00123615
*CONN
*I *448:C I *D sky130_fd_sc_hd__and3_1
*I *449:A2 I *D sky130_fd_sc_hd__a21o_1
*I *447:Y O *D sky130_fd_sc_hd__nand3b_1
*CAP
1 *448:C 0.000169847
2 *449:A2 1.85694e-05
3 *447:Y 0.000187266
4 *96:12 0.000375682
5 *448:C *449:B1 0.000116425
6 *448:C *98:10 8.22521e-05
7 *449:A2 *465:A2 0
8 *96:12 *475:B1 5.34525e-05
9 *96:12 *175:67 3.09164e-05
10 *96:12 *175:77 0
11 *448:B *448:C 3.10979e-05
12 *448:B *449:A2 9.53428e-06
13 *94:93 *96:12 0.000114492
14 *95:14 *448:C 4.66108e-05
*RES
1 *447:Y *96:12 8.885 
2 *96:12 *449:A2 1.96 
3 *96:12 *448:C 5.35 
*END

*D_NET *97 0.00151921
*CONN
*I *450:A I *D sky130_fd_sc_hd__or2b_1
*I *464:B1 I *D sky130_fd_sc_hd__a21oi_1
*I *448:X O *D sky130_fd_sc_hd__and3_1
*CAP
1 *450:A 0.000245354
2 *464:B1 0.000115807
3 *448:X 3.54892e-05
4 *97:6 0.00039665
5 *450:A *450:B_N 8.92813e-05
6 *450:A *452:A 6.94735e-06
7 *450:A *463:B1 0.000131168
8 *450:A *463:C1 6.89716e-05
9 *450:A *550:B 4.89295e-05
10 *450:A *550:C 0
11 *450:A *98:10 8.4841e-05
12 *464:B1 *464:A1 0.000119196
13 *464:B1 *550:C 9.206e-05
14 *464:B1 *574:A 0
15 *464:B1 *147:16 3.69171e-05
16 *97:6 *98:10 4.75959e-05
*RES
1 *448:X *97:6 2.05 
2 *97:6 *464:B1 8.765 
3 *97:6 *450:A 10.1 
*END

*D_NET *98 0.00218844
*CONN
*I *450:B_N I *D sky130_fd_sc_hd__or2b_1
*I *464:A1 I *D sky130_fd_sc_hd__a21oi_1
*I *449:X O *D sky130_fd_sc_hd__a21o_1
*CAP
1 *450:B_N 0.000213727
2 *464:A1 0.000129014
3 *449:X 0.00018838
4 *98:10 0.00053112
5 *450:B_N *463:B1 0.000203776
6 *450:B_N *550:B 0.000249782
7 *450:B_N *574:A 6.45236e-05
8 *450:B_N *100:10 2.42236e-05
9 *450:B_N *147:16 7.25558e-05
10 *98:10 *147:16 8.81747e-05
11 *448:C *98:10 8.22521e-05
12 *450:A *450:B_N 8.92813e-05
13 *450:A *98:10 8.4841e-05
14 *464:B1 *464:A1 0.000119196
15 *97:6 *98:10 4.75959e-05
*RES
1 *449:X *98:10 4.93 
2 *98:10 *464:A1 8.255 
3 *98:10 *450:B_N 11.57 
*END

*D_NET *99 0.000692304
*CONN
*I *452:A I *D sky130_fd_sc_hd__xnor2_1
*I *450:X O *D sky130_fd_sc_hd__or2b_1
*CAP
1 *452:A 0.000172964
2 *450:X 0.000172964
3 *452:A *463:A2 3.50152e-06
4 *452:A *463:C1 0.000132462
5 *452:A *550:B 8.64421e-05
6 *452:A *550:C 6.14689e-05
7 *452:A *147:16 9.13949e-06
8 *450:A *452:A 6.94735e-06
9 *463:A1 *452:A 4.64152e-05
*RES
1 *450:X *452:A 10.8525 
*END

*D_NET *100 0.00525842
*CONN
*I *464:A2 I *D sky130_fd_sc_hd__a21oi_1
*I *452:B I *D sky130_fd_sc_hd__xnor2_1
*I *451:X O *D sky130_fd_sc_hd__or2b_1
*CAP
1 *464:A2 0.000264113
2 *452:B 0.000238469
3 *451:X 0.000564852
4 *100:10 0.00106743
5 *452:B *463:A2 1.19928e-05
6 *464:A2 *550:B 8.5242e-05
7 *464:A2 *574:A 0.0003175
8 *464:A2 *147:66 0.000227536
9 *464:A2 *174:22 0
10 *100:10 *455:B 0.00017765
11 *100:10 *457:B 7.15997e-05
12 *100:10 *463:B1 0.000144753
13 *100:10 *531:A 3.30762e-05
14 *100:10 *532:A 0.000466462
15 *100:10 *550:B 0.00011686
16 *100:10 *147:66 0.000693705
17 *100:10 *173:10 0.000139291
18 *100:10 *174:22 0.000118081
19 *450:B_N *100:10 2.42236e-05
20 *463:A1 *452:B 0.00033117
21 *532:B *100:10 0.000164407
*RES
1 *451:X *100:10 20.91 
2 *100:10 *452:B 7.515 
3 *100:10 *464:A2 9.78 
*END

*D_NET *101 0.000461896
*CONN
*I *463:A2 I *D sky130_fd_sc_hd__a211o_1
*I *452:Y O *D sky130_fd_sc_hd__xnor2_1
*CAP
1 *463:A2 0.000142503
2 *452:Y 0.000142503
3 *463:A2 *463:C1 4.77719e-05
4 *463:A2 *159:8 4.66108e-05
5 *452:A *463:A2 3.50152e-06
6 *452:B *463:A2 1.19928e-05
7 *463:A1 *463:A2 6.70134e-05
*RES
1 *452:Y *463:A2 5.75 
*END

*D_NET *102 0.00889719
*CONN
*I *532:A I *D sky130_fd_sc_hd__and3_1
*I *458:A1 I *D sky130_fd_sc_hd__a31o_1
*I *487:A1 I *D sky130_fd_sc_hd__a31o_1
*I *520:A1 I *D sky130_fd_sc_hd__a311o_1
*I *453:Y O *D sky130_fd_sc_hd__nor3b_2
*CAP
1 *532:A 0.000384468
2 *458:A1 0.000143452
3 *487:A1 0.000198893
4 *520:A1 6.97679e-05
5 *453:Y 0.000250493
6 *102:42 0.000914074
7 *102:21 0.000646283
8 *102:12 0.000381497
9 *458:A1 *454:A 6.80137e-05
10 *458:A1 *458:A3 4.30228e-05
11 *458:A1 *462:B2 2.49909e-05
12 *458:A1 *462:C1 2.20602e-05
13 *458:A1 *104:10 0.000112279
14 *458:A1 *149:14 2.84864e-05
15 *458:A1 *157:38 2.36331e-05
16 *458:A1 *157:42 3.54721e-05
17 *487:A1 *169:57 0.000131022
18 *520:A1 *105:14 0.000192502
19 *532:A *455:A 7.08554e-05
20 *532:A *455:B 8.64599e-05
21 *532:A *174:22 0.000223521
22 *102:12 *155:99 4.82919e-05
23 *102:21 *105:14 0.000332341
24 *102:42 *455:A 1.91597e-05
25 *102:42 *485:B 8.35157e-05
26 *102:42 *487:A2 8.73389e-06
27 *102:42 *105:14 0.000841586
28 *102:42 *149:14 0.000772494
29 *487:B1 *102:21 0.000296606
30 *487:B1 *102:42 0.000167612
31 *520:C1 *520:A1 8.23457e-05
32 *520:C1 *102:21 4.66108e-05
33 *582:A *487:A1 0.000175589
34 *84:10 *102:12 0.000590935
35 *84:16 *487:A1 4.89395e-05
36 *84:25 *487:A1 8.46818e-05
37 *84:89 *102:12 0.000131017
38 *87:14 *102:12 4.2857e-05
39 *92:12 *102:12 0.000606165
40 *100:10 *532:A 0.000466462
*RES
1 *453:Y *102:12 14.57 
2 *102:12 *520:A1 3.43 
3 *102:12 *102:21 3.21 
4 *102:21 *487:A1 13.5 
5 *102:21 *102:42 11.145 
6 *102:42 *458:A1 9.14 
7 *102:42 *532:A 14.72 
*END

*D_NET *103 0.000950936
*CONN
*I *457:B I *D sky130_fd_sc_hd__nor2_1
*I *458:A2 I *D sky130_fd_sc_hd__a31o_1
*I *454:Y O *D sky130_fd_sc_hd__nand2_1
*CAP
1 *457:B 0.000119935
2 *458:A2 5.73898e-05
3 *454:Y 6.3014e-05
4 *103:6 0.000240339
5 *457:B *458:B1 1.66441e-05
6 *457:B *463:B1 0.000113222
7 *458:A2 *454:A 8.64566e-05
8 *458:A2 *454:B 1.77945e-05
9 *458:A2 *458:A3 5.13165e-05
10 *458:A2 *463:B1 8.28018e-06
11 *103:6 *454:A 7.18107e-06
12 *103:6 *455:B 2.49909e-05
13 *103:6 *463:B1 4.77807e-05
14 *103:6 *147:66 2.49909e-05
15 *462:A2 *458:A2 0
16 *100:10 *457:B 7.15997e-05
*RES
1 *454:Y *103:6 2.74 
2 *103:6 *458:A2 3.625 
3 *103:6 *457:B 8.03 
*END

*D_NET *104 0.00111673
*CONN
*I *458:A3 I *D sky130_fd_sc_hd__a31o_1
*I *462:B2 I *D sky130_fd_sc_hd__a221o_1
*I *455:X O *D sky130_fd_sc_hd__or2_1
*CAP
1 *458:A3 9.63161e-05
2 *462:B2 0.000147417
3 *455:X 9.44842e-05
4 *104:10 0.000338217
5 *458:A3 *454:A 8.12896e-06
6 *458:A3 *463:B1 1.14192e-05
7 *462:B2 *454:A 1.73e-05
8 *462:B2 *462:A1 7.04624e-05
9 *462:B2 *463:C1 4.89295e-05
10 *462:B2 *471:A1 6.63537e-06
11 *104:10 *458:B1 2.28033e-05
12 *458:A1 *458:A3 4.30228e-05
13 *458:A1 *462:B2 2.49909e-05
14 *458:A1 *104:10 0.000112279
15 *458:A2 *458:A3 5.13165e-05
16 *462:A2 *462:B2 2.3011e-05
*RES
1 *455:X *104:10 7.49 
2 *104:10 *462:B2 4.45 
3 *104:10 *458:A3 3.445 
*END

*D_NET *105 0.00685695
*CONN
*I *457:A I *D sky130_fd_sc_hd__nor2_1
*I *518:A1_N I *D sky130_fd_sc_hd__a2bb2o_1
*I *547:B2 I *D sky130_fd_sc_hd__o221a_1
*I *456:Y O *D sky130_fd_sc_hd__inv_2
*CAP
1 *457:A 0.000398032
2 *518:A1_N 3.30121e-05
3 *547:B2 0.000129706
4 *456:Y 7.19848e-05
5 *105:14 0.00141127
6 *105:10 0.00171857
7 *457:A *461:B1 5.34145e-05
8 *457:A *471:A1 8.52883e-05
9 *457:A *471:A2 1.19928e-05
10 *457:A *472:B1 1.06022e-05
11 *457:A *472:B2 0.000109489
12 *457:A *550:A 0.000356002
13 *457:A *175:67 4.29069e-05
14 *547:B2 *517:B 4.69241e-05
15 *547:B2 *109:31 0.000110785
16 *547:B2 *172:57 7.03276e-05
17 *547:B2 *173:53 0.000133597
18 *105:10 *456:A 6.72833e-06
19 *105:10 *461:B1 3.72007e-05
20 *105:10 *550:A 6.90254e-05
21 *105:10 *152:59 3.59266e-06
22 *462:B1 *457:A 0.000191335
23 *471:B1 *457:A 4.66108e-05
24 *518:A2_N *518:A1_N 9.12671e-06
25 *518:B2 *105:14 0.000120645
26 *520:A1 *105:14 0.000192502
27 *520:A2 *105:14 5.33139e-05
28 *520:A3 *105:14 2.10905e-05
29 *547:B1 *547:B2 2.86975e-05
30 *547:C1 *547:B2 9.36151e-05
31 *46:6 *105:14 1.56428e-05
32 *102:21 *105:14 0.000332341
33 *102:42 *105:14 0.000841586
*RES
1 *456:Y *105:10 4.92 
2 *105:10 *105:14 18.32 
3 *105:14 *547:B2 9.515 
4 *105:14 *518:A1_N 2.215 
5 *105:10 *457:A 12.3 
*END

*D_NET *106 0.000479437
*CONN
*I *458:B1 I *D sky130_fd_sc_hd__a31o_1
*I *457:Y O *D sky130_fd_sc_hd__nor2_1
*CAP
1 *458:B1 0.00018493
2 *457:Y 0.00018493
3 *458:B1 *463:B1 7.01303e-05
4 *457:B *458:B1 1.66441e-05
5 *104:10 *458:B1 2.28033e-05
*RES
1 *457:Y *458:B1 9.93 
*END

*D_NET *107 0.00149835
*CONN
*I *463:B1 I *D sky130_fd_sc_hd__a211o_1
*I *458:X O *D sky130_fd_sc_hd__a31o_1
*CAP
1 *463:B1 0.000369886
2 *458:X 0.000369886
3 *463:B1 *463:C1 2.805e-05
4 *450:A *463:B1 0.000131168
5 *450:B_N *463:B1 0.000203776
6 *457:B *463:B1 0.000113222
7 *458:A2 *463:B1 8.28018e-06
8 *458:A3 *463:B1 1.14192e-05
9 *458:B1 *463:B1 7.01303e-05
10 *100:10 *463:B1 0.000144753
11 *103:6 *463:B1 4.77807e-05
*RES
1 *458:X *463:B1 15.75 
*END

*D_NET *108 0.0010425
*CONN
*I *460:A I *D sky130_fd_sc_hd__clkbuf_2
*I *459:X O *D sky130_fd_sc_hd__and3b_1
*CAP
1 *460:A 0.000367608
2 *459:X 0.000367608
3 *460:A *439:B 1.41165e-05
4 *460:A *459:C 0.00011201
5 *460:A *155:57 1.07797e-05
6 *460:A *156:82 9.14049e-05
7 *445:A *460:A 7.89689e-05
*RES
1 *459:X *460:A 13.05 
*END

*D_NET *109 0.0102382
*CONN
*I *489:B1 I *D sky130_fd_sc_hd__a32o_1
*I *472:B1 I *D sky130_fd_sc_hd__a2bb2o_1
*I *461:B1 I *D sky130_fd_sc_hd__a2bb2o_1
*I *536:A2 I *D sky130_fd_sc_hd__a2111oi_1
*I *521:A2 I *D sky130_fd_sc_hd__a211o_1
*I *496:B1 I *D sky130_fd_sc_hd__a221o_1
*I *546:A2 I *D sky130_fd_sc_hd__a22oi_1
*I *460:X O *D sky130_fd_sc_hd__clkbuf_2
*CAP
1 *489:B1 8.18034e-06
2 *472:B1 4.95254e-05
3 *461:B1 0.000212105
4 *536:A2 0.000245843
5 *521:A2 0
6 *496:B1 0.000157267
7 *546:A2 0.000290909
8 *460:X 9.64402e-05
9 *109:78 0.000702681
10 *109:61 0.000706904
11 *109:57 0.000445541
12 *109:33 0.000190983
13 *109:31 0.000832145
14 *109:10 0.000768426
15 *461:B1 *461:B2 3.59531e-06
16 *461:B1 *472:B2 9.99231e-05
17 *461:B1 *533:A3 4.82919e-05
18 *461:B1 *550:A 8.62842e-05
19 *461:B1 *173:37 4.99619e-05
20 *461:B1 *175:67 0.00051895
21 *472:B1 *462:A1 4.3364e-05
22 *472:B1 *471:A1 0.000119873
23 *472:B1 *472:B2 6.54763e-05
24 *472:B1 *175:67 3.10946e-05
25 *489:B1 *149:31 2.09749e-05
26 *496:B1 *496:A1 8.4841e-05
27 *496:B1 *496:C1 6.69608e-06
28 *496:B1 *170:16 6.35186e-05
29 *496:B1 *170:29 2.92214e-05
30 *496:B1 *172:49 0.000232401
31 *536:A2 *485:A 0.000167424
32 *536:A2 *536:A1 4.82919e-05
33 *536:A2 *152:59 9.14714e-05
34 *546:A2 *546:A1 5.94287e-05
35 *546:A2 *152:59 8.12896e-06
36 *546:A2 *170:16 4.9968e-05
37 *109:10 *174:36 4.89295e-05
38 *109:31 *172:49 7.67734e-05
39 *109:31 *172:57 2.39947e-05
40 *109:33 *521:A1 9.13949e-06
41 *109:57 *488:B2 0.000142083
42 *109:57 *496:C1 7.11235e-06
43 *109:57 *521:A1 7.85332e-05
44 *109:57 *149:31 1.19106e-05
45 *109:57 *170:45 0.000270809
46 *109:57 *171:66 4.42148e-05
47 *109:61 *485:A 3.1814e-05
48 *109:78 *471:B2 0.000257554
49 *109:78 *487:A2 8.36502e-05
50 *457:A *461:B1 5.34145e-05
51 *457:A *472:B1 1.06022e-05
52 *470:B1 *109:57 1.67131e-05
53 *473:B1 *536:A2 3.01629e-05
54 *473:B1 *109:61 3.93775e-05
55 *488:A2_N *109:57 0.000109267
56 *488:B1 *109:57 0.000158564
57 *521:B1 *109:31 2.75092e-05
58 *522:B1 *496:B1 0.000116179
59 *546:B1 *546:A2 6.89365e-05
60 *546:B2 *546:A2 0.000138909
61 *547:B2 *109:31 0.000110785
62 *547:C1 *109:31 6.4816e-05
63 *582:A *536:A2 8.65961e-05
64 *582:A *109:57 3.23047e-05
65 *79:8 *536:A2 0.000138368
66 *84:31 *536:A2 0.000236855
67 *84:59 *536:A2 0.000249847
68 *89:27 *496:B1 2.747e-05
69 *89:27 *109:57 0.000193113
70 *89:40 *109:57 0.000489735
71 *89:56 *536:A2 2.55503e-05
72 *94:14 *546:A2 5.33085e-05
73 *105:10 *461:B1 3.72007e-05
*RES
1 *460:X *109:10 4.92 
2 *109:10 *546:A2 11.8938 
3 *109:10 *109:31 8.48 
4 *109:31 *109:33 0.615 
5 *109:33 *496:B1 9.86 
6 *109:33 *521:A2 1.6 
7 *109:31 *109:57 11.07 
8 *109:57 *109:61 2.4875 
9 *109:61 *536:A2 10.7475 
10 *109:61 *109:78 1.85373 
11 *109:78 *461:B1 10.4025 
12 *109:78 *472:B1 5.2275 
13 *109:57 *489:B1 1.8025 
*END

*D_NET *110 0.0014088
*CONN
*I *462:C1 I *D sky130_fd_sc_hd__a221o_1
*I *461:X O *D sky130_fd_sc_hd__a2bb2o_1
*CAP
1 *462:C1 0.000416408
2 *461:X 0.000416408
3 *462:C1 *550:A 6.90254e-05
4 *462:C1 *149:14 0.000152438
5 *462:C1 *157:38 7.61533e-06
6 *462:C1 *157:42 6.90254e-05
7 *462:C1 *157:75 0.000252216
8 *458:A1 *462:C1 2.20602e-05
9 *462:B1 *462:C1 3.60024e-06
*RES
1 *461:X *462:C1 14.505 
*END

*D_NET *111 0.00162945
*CONN
*I *463:C1 I *D sky130_fd_sc_hd__a211o_1
*I *462:X O *D sky130_fd_sc_hd__a221o_1
*CAP
1 *463:C1 0.000481061
2 *462:X 0.000481061
3 *463:C1 *550:C 0
4 *463:C1 *157:38 0.000257009
5 *450:A *463:C1 6.89716e-05
6 *452:A *463:C1 0.000132462
7 *462:B2 *463:C1 4.89295e-05
8 *463:A1 *463:C1 8.41307e-05
9 *463:A2 *463:C1 4.77719e-05
10 *463:B1 *463:C1 2.805e-05
*RES
1 *462:X *463:C1 17.445 
*END

*D_NET *112 0.00226381
*CONN
*I *469:A I *D sky130_fd_sc_hd__or2_1
*I *482:A I *D sky130_fd_sc_hd__nor2_1
*I *468:A I *D sky130_fd_sc_hd__nand2_1
*I *464:Y O *D sky130_fd_sc_hd__a21oi_1
*CAP
1 *469:A 4.34671e-05
2 *482:A 5.79659e-05
3 *468:A 0.000106789
4 *464:Y 0.000136664
5 *112:25 0.000186146
6 *112:10 0.000328166
7 *469:A *469:B 4.66108e-05
8 *469:A *475:A3 0.000110147
9 *482:A *469:B 0.000223315
10 *482:A *475:A2 1.43396e-05
11 *482:A *475:A3 8.52939e-05
12 *482:A *475:B1 8.46767e-05
13 *482:A *115:21 4.77769e-05
14 *112:10 *550:C 0.000187766
15 *112:10 *157:10 0.000189426
16 *112:25 *550:C 0.000160016
17 *112:25 *575:A 6.06948e-05
18 *112:25 *157:10 0.000172549
19 *475:A1 *482:A 2.20014e-05
*RES
1 *464:Y *112:10 6.885 
2 *112:10 *468:A 5.1 
3 *112:10 *112:25 4.655 
4 *112:25 *482:A 4.12 
5 *112:25 *469:A 2.74 
*END

*D_NET *113 0.00118238
*CONN
*I *466:B I *D sky130_fd_sc_hd__xnor2_1
*I *476:B1 I *D sky130_fd_sc_hd__a21o_1
*I *465:X O *D sky130_fd_sc_hd__o21a_1
*CAP
1 *466:B 0.000159527
2 *476:B1 0.000175109
3 *465:X 0
4 *113:4 0.000334636
5 *466:B *148:20 0.000264499
6 *466:B *168:20 0.000190027
7 *94:55 *476:B1 1.4389e-05
8 *94:72 *476:B1 2.30816e-05
9 *94:79 *476:B1 2.11084e-05
*RES
1 *465:X *113:4 1.6 
2 *113:4 *476:B1 3.955 
3 *113:4 *466:B 11.06 
*END

*D_NET *114 0.0007262
*CONN
*I *467:B I *D sky130_fd_sc_hd__xnor2_1
*I *481:B I *D sky130_fd_sc_hd__and2_1
*I *466:Y O *D sky130_fd_sc_hd__xnor2_1
*CAP
1 *467:B 6.487e-05
2 *481:B 5.36163e-05
3 *466:Y 0.000121396
4 *114:12 0.000239882
5 *467:B *467:A 8.41384e-05
6 *114:12 *148:14 2.69153e-05
7 *114:12 *168:14 2.07338e-05
8 *114:12 *168:20 0.000114649
*RES
1 *466:Y *114:12 7.685 
2 *114:12 *481:B 2.41 
3 *114:12 *467:B 2.74 
*END

*D_NET *115 0.00156521
*CONN
*I *469:B I *D sky130_fd_sc_hd__or2_1
*I *468:B I *D sky130_fd_sc_hd__nand2_1
*I *482:B I *D sky130_fd_sc_hd__nor2_1
*I *467:Y O *D sky130_fd_sc_hd__xnor2_1
*CAP
1 *469:B 0.000134778
2 *468:B 0.000155548
3 *482:B 0
4 *467:Y 0.000115373
5 *115:21 0.000375961
6 *115:12 0.000201009
7 *468:B *475:A2 1.77665e-05
8 *468:B *475:B1 1.10951e-05
9 *468:B *157:10 0
10 *115:12 *129:10 5.09431e-05
11 *115:21 *475:A2 7.18107e-06
12 *115:21 *475:B1 2.01934e-05
13 *469:A *469:B 4.66108e-05
14 *475:A1 *468:B 0.000157659
15 *482:A *469:B 0.000223315
16 *482:A *115:21 4.77769e-05
*RES
1 *467:Y *115:12 7.775 
2 *115:12 *482:B 1.6 
3 *115:12 *115:21 1.5 
4 *115:21 *468:B 8.705 
5 *115:21 *469:B 4.12 
*END

*D_NET *116 0.00126572
*CONN
*I *475:A2 I *D sky130_fd_sc_hd__a31o_1
*I *468:Y O *D sky130_fd_sc_hd__nand2_1
*CAP
1 *475:A2 0.000486054
2 *468:Y 0.000486054
3 *475:A2 *475:B1 5.46318e-05
4 *475:A2 *129:10 4.77807e-05
5 *468:B *475:A2 1.77665e-05
6 *475:A1 *475:A2 0.000151911
7 *482:A *475:A2 1.43396e-05
8 *115:21 *475:A2 7.18107e-06
*RES
1 *468:Y *475:A2 13.38 
*END

*D_NET *117 0.000585963
*CONN
*I *475:A3 I *D sky130_fd_sc_hd__a31o_1
*I *469:X O *D sky130_fd_sc_hd__or2_1
*CAP
1 *475:A3 7.93693e-05
2 *469:X 7.93693e-05
3 *475:A3 *157:10 0.000231783
4 *469:A *475:A3 0.000110147
5 *482:A *475:A3 8.52939e-05
*RES
1 *469:X *475:A3 5.72 
*END

*D_NET *118 0.0015838
*CONN
*I *471:B2 I *D sky130_fd_sc_hd__o22a_1
*I *470:Y O *D sky130_fd_sc_hd__a21oi_1
*CAP
1 *471:B2 0.000443895
2 *470:Y 0.000443895
3 *471:B2 *470:A2 1.92979e-05
4 *471:B2 *471:A1 9.94053e-05
5 *471:B2 *471:A2 0.000134295
6 *471:B2 *489:B2 9.83921e-06
7 *471:B2 *550:A 9.86239e-05
8 *471:B2 *149:31 1.66357e-05
9 *462:A2 *471:B2 4.89395e-05
10 *470:B1 *471:B2 1.14192e-05
11 *109:78 *471:B2 0.000257554
*RES
1 *470:Y *471:B2 11.5443 
*END

*D_NET *119 0.000601289
*CONN
*I *474:A I *D sky130_fd_sc_hd__or3_1
*I *471:X O *D sky130_fd_sc_hd__o22a_1
*CAP
1 *474:A 0.000128948
2 *471:X 0.000128948
3 *474:A *552:A 3.09233e-05
4 *474:A *578:A 0.00011852
5 *474:A *175:67 0.000141599
6 *471:B1 *474:A 4.7072e-06
7 *87:69 *474:A 4.76437e-05
*RES
1 *471:X *474:A 9.975 
*END

*D_NET *120 0.000603452
*CONN
*I *474:B I *D sky130_fd_sc_hd__or3_1
*I *472:X O *D sky130_fd_sc_hd__a2bb2o_1
*CAP
1 *474:B 0.000119674
2 *472:X 0.000119674
3 *474:B *470:A2 3.98029e-05
4 *474:B *471:A2 1.25531e-05
5 *474:B *474:C 7.23602e-05
6 *474:B *578:A 0.000239387
7 *474:B *168:20 0
*RES
1 *472:X *474:B 10.11 
*END

*D_NET *121 0.000470598
*CONN
*I *474:C I *D sky130_fd_sc_hd__or3_1
*I *473:X O *D sky130_fd_sc_hd__a32o_1
*CAP
1 *474:C 0.000132942
2 *473:X 0.000132942
3 *474:C *552:A 1.07797e-05
4 *474:C *578:A 2.4997e-05
5 *474:C *163:8 4.82919e-05
6 *474:C *168:20 0
7 *474:B *474:C 7.23602e-05
8 *87:69 *474:C 4.82863e-05
*RES
1 *473:X *474:C 9.735 
*END

*D_NET *122 0.00234184
*CONN
*I *475:B1 I *D sky130_fd_sc_hd__a31o_1
*I *474:X O *D sky130_fd_sc_hd__or3_1
*CAP
1 *475:B1 0.000511288
2 *474:X 0.000511288
3 *475:B1 *465:A2 0
4 *475:B1 *550:A 6.55328e-05
5 *475:B1 *581:A 4.99619e-05
6 *475:B1 *157:38 0
7 *475:B1 *168:20 0
8 *475:B1 *175:67 0.000162412
9 *468:B *475:B1 1.10951e-05
10 *475:A1 *475:B1 0.000817306
11 *475:A2 *475:B1 5.46318e-05
12 *482:A *475:B1 8.46767e-05
13 *96:12 *475:B1 5.34525e-05
14 *115:21 *475:B1 2.01934e-05
*RES
1 *474:X *475:B1 20.37 
*END

*D_NET *123 0.000607291
*CONN
*I *477:B I *D sky130_fd_sc_hd__xnor2_1
*I *476:X O *D sky130_fd_sc_hd__a21o_1
*CAP
1 *477:B 0.000155016
2 *476:X 0.000155016
3 *477:B *491:A2 0.00011852
4 *477:B *144:12 5.85534e-05
5 *477:B *170:92 0.000120186
*RES
1 *476:X *477:B 10.065 
*END

*D_NET *124 0.00144833
*CONN
*I *479:B I *D sky130_fd_sc_hd__or2_1
*I *502:A2 I *D sky130_fd_sc_hd__a21o_1
*I *478:B I *D sky130_fd_sc_hd__nand2_1
*I *477:Y O *D sky130_fd_sc_hd__xnor2_1
*CAP
1 *479:B 6.66566e-05
2 *502:A2 3.99147e-05
3 *478:B 3.37454e-05
4 *477:Y 6.7719e-05
5 *124:21 0.0002266
6 *124:8 0.000221493
7 *479:B *479:A 0.00011016
8 *479:B *484:A 0.000192506
9 *479:B *502:A1 8.23457e-05
10 *479:B *129:14 2.382e-05
11 *479:B *170:94 7.14699e-05
12 *502:A2 *502:A1 8.52972e-05
13 *502:A2 *129:14 3.33763e-05
14 *124:8 *478:A 4.43871e-06
15 *124:8 *577:A 4.40643e-05
16 *124:21 *478:A 9.27022e-05
17 *124:21 *484:B 5.20193e-05
18 *124:21 *503:A1 0
*RES
1 *477:Y *124:8 4.98 
2 *124:8 *478:B 4.05 
3 *124:8 *124:21 4.655 
4 *124:21 *502:A2 2.755 
5 *124:21 *479:B 4.12 
*END

*D_NET *125 0.000259484
*CONN
*I *480:A I *D sky130_fd_sc_hd__nand2_1
*I *478:Y O *D sky130_fd_sc_hd__nand2_1
*CAP
1 *480:A 0.000117735
2 *478:Y 0.000117735
3 *480:A *478:A 1.92113e-05
4 *480:A *484:A 4.80292e-06
*RES
1 *478:Y *480:A 5.165 
*END

*D_NET *126 0.00310439
*CONN
*I *480:B I *D sky130_fd_sc_hd__nand2_1
*I *503:B1 I *D sky130_fd_sc_hd__o21ai_1
*I *513:C1 I *D sky130_fd_sc_hd__o211ai_2
*I *479:X O *D sky130_fd_sc_hd__or2_1
*CAP
1 *480:B 0.000182973
2 *503:B1 5.97537e-05
3 *513:C1 0.000155635
4 *479:X 0
5 *126:6 0.000864518
6 *126:4 0.000832103
7 *480:B *484:A 5.68931e-05
8 *480:B *491:A2 0
9 *480:B *148:20 7.54838e-05
10 *126:6 *129:10 0.000193109
11 *126:6 *129:14 0.000490898
12 *504:B *503:B1 2.12738e-05
13 *505:B1 *503:B1 0.000110486
14 *513:B1 *513:C1 3.1876e-05
15 *33:8 *126:6 2.93836e-05
*RES
1 *479:X *126:4 1.6 
2 *126:4 *126:6 8.385 
3 *126:6 *513:C1 3.445 
4 *126:6 *503:B1 6.98 
5 *126:4 *480:B 9.065 
*END

*D_NET *127 0.000976826
*CONN
*I *484:A I *D sky130_fd_sc_hd__xnor2_1
*I *480:Y O *D sky130_fd_sc_hd__nand2_1
*CAP
1 *484:A 0.000240796
2 *480:Y 0.000240796
3 *484:A *479:A 2.0187e-05
4 *484:A *483:B 9.23804e-06
5 *484:A *491:A2 4.76051e-05
6 *484:A *129:10 0.000105488
7 *484:A *129:14 5.85128e-05
8 *479:B *484:A 0.000192506
9 *480:A *484:A 4.80292e-06
10 *480:B *484:A 5.68931e-05
*RES
1 *480:Y *484:A 12.15 
*END

*D_NET *128 0.0011713
*CONN
*I *483:A I *D sky130_fd_sc_hd__or2_1
*I *502:B1 I *D sky130_fd_sc_hd__a21o_1
*I *481:X O *D sky130_fd_sc_hd__and2_1
*CAP
1 *483:A 0
2 *502:B1 0.000314632
3 *481:X 0.000256599
4 *128:6 0.000571231
5 *502:B1 *129:14 2.88357e-05
*RES
1 *481:X *128:6 5.5 
2 *128:6 *502:B1 10.46 
3 *128:6 *483:A 1.6 
*END

*D_NET *129 0.00309385
*CONN
*I *483:B I *D sky130_fd_sc_hd__or2_1
*I *513:A1 I *D sky130_fd_sc_hd__o211ai_2
*I *503:A1 I *D sky130_fd_sc_hd__o21ai_1
*I *482:Y O *D sky130_fd_sc_hd__nor2_1
*CAP
1 *483:B 9.41419e-05
2 *513:A1 3.28975e-05
3 *503:A1 0.000156226
4 *482:Y 0.000410119
5 *129:14 0.000330766
6 *129:10 0.000645904
7 *483:B *577:A 4.58265e-05
8 *483:B *170:92 7.03219e-05
9 *503:A1 *172:18 6.77535e-05
10 *129:10 *479:A 1.08105e-05
11 *129:10 *148:14 0.00012677
12 *129:10 *148:20 2.69217e-05
13 *129:14 *502:A1 1.19028e-05
14 *475:A2 *129:10 4.77807e-05
15 *479:B *129:14 2.382e-05
16 *484:A *483:B 9.23804e-06
17 *484:A *129:10 0.000105488
18 *484:A *129:14 5.85128e-05
19 *502:A2 *129:14 3.33763e-05
20 *502:B1 *129:14 2.88357e-05
21 *33:8 *513:A1 3.5678e-06
22 *33:8 *129:14 1.79174e-05
23 *115:12 *129:10 5.09431e-05
24 *124:21 *503:A1 0
25 *126:6 *129:10 0.000193109
26 *126:6 *129:14 0.000490898
*RES
1 *482:Y *129:10 9.76 
2 *129:10 *129:14 4.95 
3 *129:14 *503:A1 8.285 
4 *129:14 *513:A1 2.215 
5 *129:10 *483:B 7.49 
*END

*D_NET *130 0.000282714
*CONN
*I *484:B I *D sky130_fd_sc_hd__xnor2_1
*I *483:X O *D sky130_fd_sc_hd__or2_1
*CAP
1 *484:B 6.27583e-05
2 *483:X 6.27583e-05
3 *484:B *478:A 7.22509e-05
4 *484:B *577:A 3.29269e-05
5 *124:21 *484:B 5.20193e-05
*RES
1 *483:X *484:B 8.835 
*END

*D_NET *131 0.00167193
*CONN
*I *491:A2 I *D sky130_fd_sc_hd__o22a_1
*I *484:Y O *D sky130_fd_sc_hd__xnor2_1
*CAP
1 *491:A2 0.00037446
2 *484:Y 0.00037446
3 *491:A2 *477:A 0.000203549
4 *491:A2 *552:B 1.03423e-05
5 *491:A2 *148:20 0
6 *491:A2 *170:92 0.000416849
7 *477:B *491:A2 0.00011852
8 *480:B *491:A2 0
9 *484:A *491:A2 4.76051e-05
10 *491:A1 *491:A2 1.16578e-05
11 *551:C *491:A2 0.000114492
*RES
1 *484:Y *491:A2 16.935 
*END

*D_NET *132 0.00149367
*CONN
*I *487:A2 I *D sky130_fd_sc_hd__a31o_1
*I *485:Y O *D sky130_fd_sc_hd__nand2_1
*CAP
1 *487:A2 0.000633321
2 *485:Y 0.000633321
3 *487:A2 *485:B 2.76356e-05
4 *487:A2 *487:A3 1.88602e-05
5 *487:A2 *149:14 1.79174e-05
6 *487:A2 *149:31 1.7635e-05
7 *487:B1 *487:A2 5.25987e-05
8 *102:42 *487:A2 8.73389e-06
9 *109:78 *487:A2 8.36502e-05
*RES
1 *485:Y *487:A2 12.4527 
*END

*D_NET *133 0.00129291
*CONN
*I *487:A3 I *D sky130_fd_sc_hd__a31o_1
*I *490:A2 I *D sky130_fd_sc_hd__a211o_1
*I *486:X O *D sky130_fd_sc_hd__or2_1
*CAP
1 *487:A3 0.000155816
2 *490:A2 0.000143611
3 *486:X 2.9928e-05
4 *133:6 0.000329354
5 *487:A3 *473:A3 4.58262e-06
6 *487:A3 *490:B1 6.90254e-05
7 *487:A3 *490:C1 6.90254e-05
8 *487:A3 *149:37 1.0397e-05
9 *487:A3 *170:35 2.3228e-05
10 *490:A2 *491:B1 5.13924e-05
11 *490:A2 *170:31 1.21329e-05
12 *490:A2 *170:35 1.46781e-05
13 *490:A2 *170:70 8.23457e-05
14 *133:6 *170:70 4.66108e-05
15 *487:A2 *487:A3 1.88602e-05
16 *582:A *487:A3 0.000174587
17 *87:52 *490:A2 4.77807e-05
18 *87:69 *490:A2 9.55262e-06
*RES
1 *486:X *133:6 2.05 
2 *133:6 *490:A2 7.7 
3 *133:6 *487:A3 9.02 
*END

*D_NET *134 0.00149584
*CONN
*I *491:B1 I *D sky130_fd_sc_hd__o22a_1
*I *487:X O *D sky130_fd_sc_hd__a31o_1
*CAP
1 *491:B1 0.000452764
2 *487:X 0.000452764
3 *491:B1 *491:B2 0.000289011
4 *491:B1 *170:31 1.79455e-05
5 *491:B1 *170:35 3.4037e-05
6 *491:B1 *170:92 4.24292e-06
7 *487:B1 *491:B1 5.11067e-05
8 *488:A2_N *491:B1 7.22565e-05
9 *490:A2 *491:B1 5.13924e-05
10 *89:44 *491:B1 7.03219e-05
11 *92:38 *491:B1 0
12 *92:61 *491:B1 0
*RES
1 *487:X *491:B1 15.84 
*END

*D_NET *135 0.0004155
*CONN
*I *490:B1 I *D sky130_fd_sc_hd__a211o_1
*I *488:X O *D sky130_fd_sc_hd__a2bb2o_1
*CAP
1 *490:B1 7.78747e-05
2 *488:X 7.78747e-05
3 *490:B1 *490:C1 2.25299e-05
4 *490:B1 *170:31 2.98644e-05
5 *490:B1 *170:35 9.05535e-05
6 *487:A3 *490:B1 6.90254e-05
7 *582:A *490:B1 4.77769e-05
*RES
1 *488:X *490:B1 9.03 
*END

*D_NET *136 0.000403011
*CONN
*I *490:C1 I *D sky130_fd_sc_hd__a211o_1
*I *489:X O *D sky130_fd_sc_hd__a32o_1
*CAP
1 *490:C1 5.25582e-05
2 *489:X 5.25582e-05
3 *490:C1 *149:37 7.03219e-05
4 *490:C1 *149:50 4.04632e-05
5 *490:C1 *170:70 4.77769e-05
6 *487:A3 *490:C1 6.90254e-05
7 *490:B1 *490:C1 2.25299e-05
8 *87:69 *490:C1 4.77769e-05
*RES
1 *489:X *490:C1 9.03 
*END

*D_NET *137 0.00085024
*CONN
*I *491:B2 I *D sky130_fd_sc_hd__o22a_1
*I *490:X O *D sky130_fd_sc_hd__a211o_1
*CAP
1 *491:B2 0.00015921
2 *490:X 0.00015921
3 *491:B2 *170:29 8.57024e-05
4 *491:B2 *170:92 0.000157107
5 *491:B1 *491:B2 0.000289011
*RES
1 *490:X *491:B2 11.415 
*END

*D_NET *138 0.000458309
*CONN
*I *493:B2 I *D sky130_fd_sc_hd__o22a_1
*I *492:Y O *D sky130_fd_sc_hd__a21oi_1
*CAP
1 *493:B2 7.12308e-05
2 *492:Y 7.12308e-05
3 *493:B2 *494:A2 9.43463e-05
4 *493:B2 *150:23 8.35068e-05
5 *493:B2 *171:36 0.000120407
6 *79:41 *493:B2 1.75875e-05
*RES
1 *492:Y *493:B2 5.3 
*END

*D_NET *139 0.000591261
*CONN
*I *505:A1 I *D sky130_fd_sc_hd__o32a_1
*I *493:X O *D sky130_fd_sc_hd__o22a_1
*CAP
1 *505:A1 0.000127694
2 *493:X 0.000127694
3 *505:A1 *494:A2 9.80943e-06
4 *505:A1 *505:A2 0.000142526
5 *505:A1 *505:A3 1.73877e-05
6 *505:A1 *171:60 6.75314e-05
7 *494:A3 *505:A1 1.16578e-05
8 *79:41 *505:A1 8.696e-05
*RES
1 *493:X *505:A1 10.335 
*END

*D_NET *140 0.000320704
*CONN
*I *505:A2 I *D sky130_fd_sc_hd__o32a_1
*I *494:X O *D sky130_fd_sc_hd__a31o_1
*CAP
1 *505:A2 7.35861e-05
2 *494:X 7.35861e-05
3 *505:A1 *505:A2 0.000142526
4 *79:41 *505:A2 3.10059e-05
*RES
1 *494:X *505:A2 8.775 
*END

*D_NET *141 0.000811268
*CONN
*I *496:C1 I *D sky130_fd_sc_hd__a221o_1
*I *495:Y O *D sky130_fd_sc_hd__nor2_1
*CAP
1 *496:C1 0.000219444
2 *495:Y 0.000219444
3 *496:C1 *521:A1 0.000197822
4 *496:C1 *172:39 4.99581e-05
5 *496:B1 *496:C1 6.69608e-06
6 *522:B1 *496:C1 0.000110791
7 *109:57 *496:C1 7.11235e-06
*RES
1 *495:Y *496:C1 10.755 
*END

*D_NET *142 0.00159987
*CONN
*I *505:A3 I *D sky130_fd_sc_hd__o32a_1
*I *496:X O *D sky130_fd_sc_hd__a221o_1
*CAP
1 *505:A3 0.000392785
2 *496:X 0.000392785
3 *505:A3 *161:10 0
4 *505:A3 *162:6 4.82863e-05
5 *505:A3 *170:29 0.000121437
6 *505:A3 *171:60 0.000179557
7 *505:A3 *171:64 0.000284281
8 *494:A3 *505:A3 0.000163347
9 *505:A1 *505:A3 1.73877e-05
*RES
1 *496:X *505:A3 15.63 
*END

*D_NET *143 0.000725638
*CONN
*I *512:A I *D sky130_fd_sc_hd__or2_1
*I *500:A I *D sky130_fd_sc_hd__xnor2_1
*I *497:Y O *D sky130_fd_sc_hd__inv_2
*CAP
1 *512:A 7.52985e-05
2 *500:A 5.74128e-05
3 *497:Y 2.53762e-05
4 *143:6 0.000158088
5 *500:A *580:A 0.000160338
6 *512:A *580:A 0.000114518
7 *512:A *171:12 2.69443e-06
8 *143:6 *580:A 3.57349e-05
9 *501:A *500:A 1.08758e-05
10 *501:A *143:6 8.53011e-05
*RES
1 *497:Y *143:6 2.395 
2 *143:6 *500:A 3.085 
3 *143:6 *512:A 7.235 
*END

*D_NET *144 0.00451426
*CONN
*I *507:B1 I *D sky130_fd_sc_hd__a21o_1
*I *499:B I *D sky130_fd_sc_hd__xor2_1
*I *498:X O *D sky130_fd_sc_hd__o41a_1
*CAP
1 *507:B1 9.60433e-05
2 *499:B 0.000133111
3 *498:X 0.000883191
4 *144:12 0.00111235
5 *507:B1 *507:A1 5.4155e-06
6 *507:B1 *151:23 4.49498e-05
7 *144:12 *477:A 0.000116158
8 *477:B *144:12 5.85534e-05
9 *498:B1 *144:12 3.68682e-05
10 *529:A2 *507:B1 0
11 *94:55 *507:B1 2.87867e-05
12 *94:55 *144:12 0.00199884
*RES
1 *498:X *144:12 26.405 
2 *144:12 *499:B 3.445 
3 *144:12 *507:B1 7.595 
*END

*D_NET *145 0.00151043
*CONN
*I *500:B I *D sky130_fd_sc_hd__xnor2_1
*I *512:B I *D sky130_fd_sc_hd__or2_1
*I *499:X O *D sky130_fd_sc_hd__xor2_1
*CAP
1 *500:B 0.000183139
2 *512:B 0.000145798
3 *499:X 0.000303521
4 *145:8 0.000632458
5 *500:B *580:A 7.11365e-05
6 *145:8 *580:A 0
7 *145:8 *151:10 0
8 *145:8 *151:23 0.000165068
9 *508:B *145:8 9.3062e-06
10 *529:A2 *145:8 0
*RES
1 *499:X *145:8 9.315 
2 *145:8 *512:B 5.775 
3 *145:8 *500:B 6.885 
*END

*D_NET *146 0.00861387
*CONN
*I *432:A2 I *D sky130_fd_sc_hd__a21oi_1
*I *440:A I *D sky130_fd_sc_hd__nor2_1
*I *435:A2 I *D sky130_fd_sc_hd__a32o_1
*I *438:A2 I *D sky130_fd_sc_hd__o21a_1
*I *461:B2 I *D sky130_fd_sc_hd__a2bb2o_1
*I *451:A I *D sky130_fd_sc_hd__or2b_1
*I *431:A2_N I *D sky130_fd_sc_hd__a2bb2o_1
*I *553:X O *D sky130_fd_sc_hd__clkbuf_2
*CAP
1 *432:A2 1.38647e-05
2 *440:A 0
3 *435:A2 0
4 *438:A2 7.0491e-05
5 *461:B2 7.45782e-05
6 *451:A 0.000295289
7 *431:A2_N 4.29756e-05
8 *553:X 0.000907368
9 *146:63 0.000117919
10 *146:43 0.000425796
11 *146:39 0.00028834
12 *146:35 0.000337794
13 *146:18 0.000289113
14 *146:14 0.00101456
15 *431:A2_N *156:22 9.47099e-06
16 *432:A2 *573:A 2.49909e-05
17 *438:A2 *550:A 9.37731e-05
18 *438:A2 *156:22 4.77757e-05
19 *438:A2 *175:14 4.1652e-06
20 *438:A2 *175:27 6.30983e-05
21 *451:A *451:B_N 8.73389e-06
22 *451:A *174:22 2.19562e-06
23 *461:B2 *550:A 0.000200056
24 *461:B2 *175:67 4.32962e-05
25 *146:14 *430:A 8.60799e-05
26 *146:14 *430:B 0.000223267
27 *146:14 *436:A_N 7.49304e-05
28 *146:14 *436:B 3.00381e-05
29 *146:14 *436:C 0.000327689
30 *146:14 *573:A 0.000307269
31 *146:14 *153:12 0.00026033
32 *146:14 *154:6 0.000581981
33 *146:14 *155:25 0.000196669
34 *146:14 *156:88 0.000198339
35 *146:18 *432:A1 0.000158297
36 *146:35 *432:A1 3.09233e-05
37 *146:35 *156:22 0.00011125
38 *146:35 *175:41 0
39 *146:39 *435:A3 0.000160635
40 *146:39 *156:22 1.08758e-05
41 *146:39 *175:41 4.16445e-05
42 *146:43 *550:A 0.000155928
43 *146:63 *435:A3 4.66108e-05
44 *146:63 *175:31 1.91597e-05
45 result[0] *146:14 0.000138799
46 *432:B1 *432:A2 3.66286e-05
47 *432:B1 *146:14 8.8266e-05
48 *435:B1 *461:B2 6.52111e-05
49 *435:B1 *146:43 7.23602e-05
50 *437:A *146:14 0.00011964
51 *438:B1 *438:A2 1.58871e-05
52 *440:B *146:35 4.82919e-05
53 *440:B *146:39 7.55165e-05
54 *441:B *146:39 8.40269e-05
55 *441:D *146:39 4.82863e-05
56 *442:A *438:A2 2.86975e-05
57 *461:B1 *461:B2 3.59531e-06
58 *470:B1 *146:35 6.95405e-05
59 *534:B1 *451:A 0.00012995
60 *534:B1 *146:43 4.65643e-05
61 *534:B2 *451:A 8.52883e-05
62 *560:A *146:14 4.99619e-05
63 *80:52 *146:14 9.80032e-06
*RES
1 *553:X *146:14 26.695 
2 *146:14 *146:18 3.89 
3 *146:18 *431:A2_N 4.32375 
4 *146:18 *146:35 4.85 
5 *146:35 *146:39 3.915 
6 *146:39 *146:43 3.89 
7 *146:43 *451:A 7.155 
8 *146:43 *461:B2 6 
9 *146:39 *146:63 0.795 
10 *146:63 *438:A2 7.685 
11 *146:63 *435:A2 1.6 
12 *146:35 *440:A 1.6 
13 *146:14 *432:A2 2.05 
*END

*D_NET *147 0.00591094
*CONN
*I *454:B I *D sky130_fd_sc_hd__nand2_1
*I *455:B I *D sky130_fd_sc_hd__or2_1
*I *465:A2 I *D sky130_fd_sc_hd__o21a_1
*I *447:A_N I *D sky130_fd_sc_hd__nand3b_1
*I *498:A2 I *D sky130_fd_sc_hd__o41a_1
*I *446:B1_N I *D sky130_fd_sc_hd__a21bo_1
*I *554:X O *D sky130_fd_sc_hd__dlymetal6s2s_1
*CAP
1 *454:B 8.07699e-06
2 *455:B 0.000154129
3 *465:A2 0.000114783
4 *447:A_N 0
5 *498:A2 8.72388e-05
6 *446:B1_N 0
7 *554:X 0
8 *147:66 0.000474513
9 *147:27 0.000109831
10 *147:25 0.000287004
11 *147:16 0.000613126
12 *147:4 0.000775804
13 *454:B *454:A 1.77945e-05
14 *455:B *454:A 2.49909e-05
15 *465:A2 *465:A1 0.000117832
16 *465:A2 *175:77 9.50342e-06
17 *498:A2 *447:C 2.31547e-05
18 *498:A2 *498:A1 6.97118e-05
19 *498:A2 *175:77 5.78262e-05
20 *147:16 *550:C 0.000138551
21 *147:25 *175:69 1.61831e-05
22 *147:25 *175:77 9.27255e-06
23 *147:27 *447:C 9.53428e-06
24 *147:27 *498:A1 3.26889e-05
25 *147:66 *454:A 2.10905e-05
26 *147:66 *174:22 0.00030001
27 zero *147:66 0.000154806
28 *446:A2 *147:16 0.000197529
29 *446:A2 *147:25 1.46828e-05
30 *447:B *147:25 2.28514e-05
31 *449:A2 *465:A2 0
32 *450:B_N *147:16 7.25558e-05
33 *452:A *147:16 9.13949e-06
34 *458:A2 *454:B 1.77945e-05
35 *463:A1 *147:16 0.000202895
36 *464:A2 *147:66 0.000227536
37 *464:B1 *147:16 3.69171e-05
38 *475:B1 *465:A2 0
39 *532:A *455:B 8.64599e-05
40 *554:A *147:66 1.22505e-05
41 *92:82 *498:A2 0.000111285
42 *94:93 *465:A2 8.14579e-05
43 *94:93 *147:25 5.61451e-05
44 *94:93 *147:27 0
45 *95:14 *147:16 0.000124471
46 *98:10 *147:16 8.81747e-05
47 *100:10 *455:B 0.00017765
48 *100:10 *147:66 0.000693705
49 *103:6 *455:B 2.49909e-05
50 *103:6 *147:66 2.49909e-05
*RES
1 *554:X *147:4 1.6 
2 *147:4 *147:16 13.105 
3 *147:16 *446:B1_N 1.6 
4 *147:16 *147:25 2.19 
5 *147:25 *147:27 0.615 
6 *147:27 *498:A2 4.135 
7 *147:27 *447:A_N 1.6 
8 *147:25 *465:A2 8.135 
9 *147:4 *147:66 15.46 
10 *147:66 *455:B 8.99 
11 *147:66 *454:B 1.96 
*END

*D_NET *148 0.00575213
*CONN
*I *466:A I *D sky130_fd_sc_hd__xnor2_1
*I *476:A1 I *D sky130_fd_sc_hd__a21o_1
*I *498:A3 I *D sky130_fd_sc_hd__o41a_1
*I *473:A2 I *D sky130_fd_sc_hd__a32o_1
*I *471:A2 I *D sky130_fd_sc_hd__o22a_1
*I *470:A2 I *D sky130_fd_sc_hd__a21oi_1
*I *555:X O *D sky130_fd_sc_hd__clkbuf_2
*CAP
1 *466:A 0
2 *476:A1 0
3 *498:A3 2.52009e-05
4 *473:A2 0
5 *471:A2 0.000454651
6 *470:A2 0.00012846
7 *555:X 0.000435509
8 *148:32 0.000583111
9 *148:30 0.000396771
10 *148:22 0.000508622
11 *148:20 0.000390395
12 *148:14 0.000739254
13 *470:A2 *578:A 0
14 *470:A2 *168:20 9.12494e-06
15 *470:A2 *168:24 0.00011272
16 *470:A2 *168:43 4.77807e-05
17 *471:A2 *471:A1 2.68526e-05
18 *471:A2 *550:A 1.92979e-05
19 *471:A2 *168:20 3.15045e-05
20 *498:A3 *498:A4 5.83121e-06
21 *148:14 *168:14 7.15997e-05
22 *148:14 *168:20 8.44308e-05
23 *148:20 *477:A 0
24 *148:20 *168:20 0
25 *148:22 *168:20 0
26 *148:30 *473:A3 4.20554e-05
27 *148:30 *473:B2 0.00012398
28 *148:30 *477:A 0
29 *148:30 *552:C 7.63282e-05
30 *148:30 *149:50 0
31 *148:30 *168:20 0
32 *457:A *471:A2 1.19928e-05
33 *462:A2 *470:A2 2.01737e-05
34 *466:B *148:20 0.000264499
35 *471:B2 *470:A2 1.92979e-05
36 *471:B2 *471:A2 0.000134295
37 *472:A2_N *470:A2 2.0851e-06
38 *473:B1 *148:30 3.31611e-05
39 *474:B *470:A2 3.98029e-05
40 *474:B *471:A2 1.25531e-05
41 *480:B *148:20 7.54838e-05
42 *491:A1 *148:30 0.000106784
43 *491:A2 *148:20 0
44 *498:B1 *148:22 0.000131408
45 *498:B1 *148:30 8.53113e-06
46 *79:8 *148:30 0.000101317
47 *87:69 *148:30 0.000281928
48 *92:82 *498:A3 1.47347e-05
49 *114:12 *148:14 2.69153e-05
50 *129:10 *148:14 0.00012677
51 *129:10 *148:20 2.69217e-05
*RES
1 *555:X *148:14 13.025 
2 *148:14 *148:20 8.93 
3 *148:20 *148:22 1.89 
4 *148:22 *148:30 11.105 
5 *148:30 *148:32 2 
6 *148:32 *470:A2 5.94 
7 *148:32 *471:A2 7.15393 
8 *148:30 *473:A2 1.6 
9 *148:22 *498:A3 4.05 
10 *148:20 *476:A1 3.6 
11 *148:14 *466:A 1.6 
*END

*D_NET *149 0.00829342
*CONN
*I *489:A2 I *D sky130_fd_sc_hd__a32o_1
*I *477:A I *D sky130_fd_sc_hd__xnor2_1
*I *498:A4 I *D sky130_fd_sc_hd__o41a_1
*I *486:B I *D sky130_fd_sc_hd__or2_1
*I *485:B I *D sky130_fd_sc_hd__nand2_1
*I *556:X O *D sky130_fd_sc_hd__clkbuf_2
*CAP
1 *489:A2 0
2 *477:A 0.000321589
3 *498:A4 5.59261e-05
4 *486:B 0.00010709
5 *485:B 3.04514e-05
6 *556:X 0.00101976
7 *149:50 0.000678794
8 *149:37 0.000486986
9 *149:31 0.000283068
10 *149:14 0.00125466
11 *486:B *473:B2 4.64676e-05
12 *486:B *170:70 4.77807e-05
13 *149:14 *435:B2 6.54596e-05
14 *149:14 *451:B_N 0.000420186
15 *149:14 *455:A 4.77769e-05
16 *149:14 *472:B2 8.76122e-05
17 *149:14 *550:A 0
18 *149:14 *152:59 9.22251e-05
19 *149:14 *157:44 2.1553e-05
20 *149:14 *157:75 2.04531e-05
21 *149:14 *175:10 0.000189914
22 *149:31 *473:A3 8.53011e-05
23 *149:31 *489:B2 5.69057e-05
24 *149:31 *170:45 3.62939e-05
25 *149:37 *473:A3 7.64752e-05
26 *149:37 *170:45 5.12898e-05
27 *149:50 *170:31 0
28 *149:50 *170:92 0
29 *458:A1 *149:14 2.84864e-05
30 *462:A2 *149:31 8.73389e-06
31 *462:C1 *149:14 0.000152438
32 *470:B1 *149:31 0.000184757
33 *471:B2 *149:31 1.66357e-05
34 *472:A2_N *149:14 0.000197862
35 *472:A2_N *149:31 1.64141e-05
36 *473:B1 *149:31 1.81281e-05
37 *487:A2 *485:B 2.76356e-05
38 *487:A2 *149:14 1.79174e-05
39 *487:A2 *149:31 1.7635e-05
40 *487:A3 *149:37 1.0397e-05
41 *489:B1 *149:31 2.09749e-05
42 *490:C1 *149:37 7.03219e-05
43 *490:C1 *149:50 4.04632e-05
44 *491:A1 *149:50 0.000102346
45 *491:A2 *477:A 0.000203549
46 *498:A3 *498:A4 5.83121e-06
47 *498:B1 *477:A 9.26907e-06
48 *498:B1 *498:A4 1.32668e-05
49 *552:D *477:A 2.30797e-05
50 *552:D *149:50 0.000157602
51 *559:A *149:14 5.30673e-05
52 *79:8 *149:37 3.18891e-05
53 *79:8 *149:50 0.000135095
54 *92:82 *498:A4 0.000161529
55 *102:42 *485:B 8.35157e-05
56 *102:42 *149:14 0.000772494
57 *109:57 *149:31 1.19106e-05
58 *144:12 *477:A 0.000116158
59 *148:20 *477:A 0
60 *148:30 *477:A 0
61 *148:30 *149:50 0
*RES
1 *556:X *149:14 27.995 
2 *149:14 *485:B 2.395 
3 *149:14 *149:31 8.59 
4 *149:31 *149:37 3.92 
5 *149:37 *486:B 5.1 
6 *149:37 *149:50 6.48 
7 *149:50 *498:A4 5.085 
8 *149:50 *477:A 10.335 
9 *149:31 *489:A2 1.6 
*END

*D_NET *150 0.00531473
*CONN
*I *499:A I *D sky130_fd_sc_hd__xor2_1
*I *507:A1 I *D sky130_fd_sc_hd__a21o_1
*I *494:A2 I *D sky130_fd_sc_hd__a31o_1
*I *493:A2 I *D sky130_fd_sc_hd__o22a_1
*I *492:A2 I *D sky130_fd_sc_hd__a21oi_1
*I *557:X O *D sky130_fd_sc_hd__clkbuf_2
*CAP
1 *499:A 7.36252e-05
2 *507:A1 0.00020196
3 *494:A2 0.000111194
4 *493:A2 0
5 *492:A2 1.57356e-05
6 *557:X 0.00023364
7 *150:45 0.00037196
8 *150:23 0.000165812
9 *150:14 0.000631714
10 *150:8 0.000891376
11 *494:A2 *552:B 0.000307842
12 *150:14 *537:B1 0.000277321
13 *150:14 *552:B 9.47972e-06
14 *150:14 *579:A 0.000192865
15 *150:23 *493:A1 0.000121643
16 *150:23 *552:B 3.39942e-05
17 *150:23 *171:36 4.21579e-05
18 result[6] *150:8 0
19 *493:B1 *494:A2 0.000122797
20 *493:B2 *494:A2 9.43463e-05
21 *493:B2 *150:23 8.35068e-05
22 *494:A3 *494:A2 4.99619e-05
23 *505:A1 *494:A2 9.80943e-06
24 *507:B1 *507:A1 5.4155e-06
25 *508:B *499:A 0.000110683
26 *529:A2 *507:A1 0
27 *537:A2 *150:14 4.82919e-05
28 *544:A1 *150:14 2.49909e-05
29 *544:A2 *150:14 0.000120655
30 *544:B1 *150:14 0.000164874
31 *37:8 *507:A1 3.03775e-05
32 *37:12 *499:A 5.56629e-05
33 *37:12 *150:8 0.000520015
34 *37:12 *150:45 0.000162332
35 *79:41 *494:A2 2.8694e-05
*RES
1 *557:X *150:8 9.57 
2 *150:8 *150:14 12.47 
3 *150:14 *492:A2 1.96 
4 *150:14 *150:23 1.83 
5 *150:23 *493:A2 1.6 
6 *150:23 *494:A2 5.995 
7 *150:8 *150:45 1.89 
8 *150:45 *507:A1 6.84 
9 *150:45 *499:A 5.49 
*END

*D_NET *151 0.00691464
*CONN
*I *524:A1 I *D sky130_fd_sc_hd__a21oi_1
*I *516:B I *D sky130_fd_sc_hd__nand2_1
*I *517:B I *D sky130_fd_sc_hd__or2_1
*I *542:A1 I *D sky130_fd_sc_hd__o31a_1
*I *508:A I *D sky130_fd_sc_hd__xor2_1
*I *558:X O *D sky130_fd_sc_hd__clkbuf_2
*CAP
1 *524:A1 0
2 *516:B 6.18893e-05
3 *517:B 0.000227194
4 *542:A1 2.56802e-05
5 *508:A 0
6 *558:X 0.000316921
7 *151:36 0.00072756
8 *151:27 0.00076955
9 *151:23 0.000871734
10 *151:10 0.000883261
11 *517:B *172:57 0.000120412
12 *517:B *173:53 2.0508e-05
13 *151:23 *526:A 0
14 result[7] *151:10 7.1624e-05
15 *507:B1 *151:23 4.49498e-05
16 *508:B *151:10 3.09233e-05
17 *508:B *151:23 0.000474343
18 *524:A2 *151:27 0.000226749
19 *524:B1 *151:27 3.12916e-05
20 *526:B *151:23 8.42575e-05
21 *542:A3 *151:27 2.10295e-05
22 *547:B1 *517:B 5.2431e-05
23 *547:B2 *517:B 4.69241e-05
24 *547:C1 *517:B 6.97733e-05
25 *37:12 *151:23 0.000956038
26 *54:8 *151:23 0.000127624
27 *89:27 *517:B 7.01303e-05
28 *94:14 *151:36 0.000175792
29 *94:27 *542:A1 3.48594e-05
30 *94:27 *151:27 0.000163186
31 *94:27 *151:36 4.29365e-05
32 *94:40 *151:23 0
33 *94:55 *151:23 0
34 *145:8 *151:10 0
35 *145:8 *151:23 0.000165068
*RES
1 *558:X *151:10 11.315 
2 *151:10 *508:A 1.6 
3 *151:10 *151:23 21.22 
4 *151:23 *151:27 4.515 
5 *151:27 *542:A1 2.215 
6 *151:27 *151:36 5.28 
7 *151:36 *517:B 9.8 
8 *151:36 *516:B 2.6275 
9 *151:23 *524:A1 1.6 
*END

*D_NET *152 0.00887233
*CONN
*I *542:A2 I *D sky130_fd_sc_hd__o31a_1
*I *525:A I *D sky130_fd_sc_hd__xnor2_1
*I *533:A2 I *D sky130_fd_sc_hd__a31o_1
*I *530:B I *D sky130_fd_sc_hd__nand2_1
*I *531:B I *D sky130_fd_sc_hd__or2_1
*I *559:X O *D sky130_fd_sc_hd__clkbuf_2
*CAP
1 *542:A2 0.000102665
2 *525:A 0.000302399
3 *533:A2 0
4 *530:B 0
5 *531:B 0
6 *559:X 0.000202004
7 *152:59 0.00239997
8 *152:28 0.00208122
9 *152:19 0.000239447
10 *152:8 0.000355137
11 *525:A *173:53 3.112e-05
12 *542:A2 *173:70 7.94515e-05
13 *152:19 *531:A 0.000351067
14 *152:28 *533:A1 3.50152e-06
15 *152:28 *173:31 4.65766e-05
16 *152:28 *173:37 1.43396e-05
17 *152:59 *456:A 5.37195e-05
18 *152:59 *533:A3 4.6368e-06
19 *152:59 *546:A1 0.00011
20 *152:59 *169:14 8.58623e-05
21 *152:59 *173:37 7.46328e-06
22 *152:59 *173:45 0.000145855
23 *152:59 *173:70 4.04087e-05
24 *532:C *152:19 2.61042e-05
25 *533:B1 *152:19 0.00011099
26 *533:B1 *152:28 4.77719e-05
27 *536:A2 *152:59 9.14714e-05
28 *541:A *152:59 0.0001289
29 *543:A *152:59 0.000163204
30 *546:A2 *152:59 8.12896e-06
31 *546:B1 *152:59 0.000300495
32 *546:B2 *152:59 0.000268086
33 *547:C1 *152:59 0.000161985
34 *563:A *152:8 0
35 *60:10 *152:19 5.88634e-05
36 *67:12 *152:59 0
37 *79:8 *152:59 9.27736e-05
38 *80:14 *152:59 0
39 *87:14 *152:59 0.000239822
40 *89:56 *152:59 0.000421073
41 *105:10 *152:59 3.59266e-06
42 *149:14 *152:59 9.22251e-05
*RES
1 *559:X *152:8 6.765 
2 *152:8 *531:B 3.6 
3 *152:8 *152:19 6.44 
4 *152:19 *530:B 1.6 
5 *152:19 *152:28 1.845 
6 *152:28 *533:A2 1.6 
7 *152:28 *152:59 41.995 
8 *152:59 *525:A 8.19 
9 *152:59 *542:A2 5.49 
*END

*D_NET *153 0.00192932
*CONN
*I *540:B I *D sky130_fd_sc_hd__nand2_1
*I *539:B I *D sky130_fd_sc_hd__or2_1
*I *560:X O *D sky130_fd_sc_hd__clkbuf_1
*CAP
1 *540:B 0.00012323
2 *539:B 0
3 *560:X 0.000640816
4 *153:12 0.000764046
5 *540:B *539:A 9.09329e-05
6 *67:12 *540:B 4.99619e-05
7 *80:14 *153:12 0
8 *146:14 *153:12 0.00026033
*RES
1 *560:X *153:12 15.215 
2 *153:12 *539:B 1.6 
3 *153:12 *540:B 4.15 
*END

*D_NET *154 0.00805131
*CONN
*I *444:C_N I *D sky130_fd_sc_hd__or3b_4
*I *453:B I *D sky130_fd_sc_hd__nor3b_2
*I *433:B I *D sky130_fd_sc_hd__nor3b_1
*I *434:C I *D sky130_fd_sc_hd__and3_2
*I *439:B I *D sky130_fd_sc_hd__nand3b_4
*I *459:A_N I *D sky130_fd_sc_hd__and3b_1
*I *430:B I *D sky130_fd_sc_hd__or3b_2
*I *436:C I *D sky130_fd_sc_hd__and3b_1
*I *561:X O *D sky130_fd_sc_hd__buf_4
*CAP
1 *444:C_N 0
2 *453:B 5.56867e-05
3 *433:B 0.000190986
4 *434:C 0
5 *439:B 0.000225208
6 *459:A_N 0
7 *430:B 0.000270206
8 *436:C 0.000152359
9 *561:X 0.000200096
10 *154:67 0.000289252
11 *154:58 0.000450202
12 *154:54 0.000596439
13 *154:32 0.000225208
14 *154:30 0.000245542
15 *154:19 0.000372424
16 *154:6 0.000397948
17 *433:B *433:A 0.00018998
18 *433:B *156:67 9.31189e-05
19 *433:B *174:36 0.000164874
20 *436:C *430:A 7.60921e-05
21 *436:C *155:25 0.000199498
22 *439:B *459:C 0.000269299
23 *453:B *155:73 8.40269e-05
24 *453:B *155:86 3.83041e-05
25 *453:B *155:99 0.000105782
26 *154:19 *459:B 0
27 *154:30 *459:B 0
28 *154:30 *155:57 0
29 *154:54 *170:16 5.0751e-05
30 *154:58 *444:A 8.35068e-05
31 *154:58 *155:64 1.42704e-05
32 *154:58 *156:67 3.72418e-05
33 *154:58 *156:69 0.000146942
34 *154:67 *155:64 1.08758e-05
35 *154:67 *155:73 3.57349e-05
36 *445:A *154:58 1.16854e-05
37 *460:A *439:B 1.41165e-05
38 *562:A *154:19 2.97004e-06
39 *80:14 *436:C 0.000543428
40 *80:14 *154:6 4.60584e-05
41 *80:14 *154:19 4.13171e-05
42 *80:14 *154:30 4.84393e-05
43 *80:14 *154:54 0.00011562
44 *80:52 *436:C 0.000314557
45 *84:10 *453:B 0.000201508
46 *89:14 *439:B 0.000306816
47 *89:14 *154:30 0
48 *89:14 *154:54 0
49 *146:14 *430:B 0.000223267
50 *146:14 *436:C 0.000327689
51 *146:14 *154:6 0.000581981
*RES
1 *561:X *154:6 6.88 
2 *154:6 *436:C 9.655 
3 *154:6 *154:19 2.87 
4 *154:19 *430:B 7.155 
5 *154:19 *154:30 1.125 
6 *154:30 *154:32 2 
7 *154:32 *459:A_N 1.6 
8 *154:32 *439:B 6.91 
9 *154:30 *154:54 5.885 
10 *154:54 *154:58 5.205 
11 *154:58 *434:C 1.6 
12 *154:58 *154:67 0.81 
13 *154:67 *433:B 9.845 
14 *154:67 *453:B 4.135 
15 *154:54 *444:C_N 1.6 
*END

*D_NET *155 0.00529427
*CONN
*I *430:A I *D sky130_fd_sc_hd__or3b_2
*I *429:B I *D sky130_fd_sc_hd__or2_2
*I *443:B I *D sky130_fd_sc_hd__nor2_2
*I *453:A I *D sky130_fd_sc_hd__nor3b_2
*I *433:C_N I *D sky130_fd_sc_hd__nor3b_1
*I *434:B I *D sky130_fd_sc_hd__and3_2
*I *444:B I *D sky130_fd_sc_hd__or3b_4
*I *439:A_N I *D sky130_fd_sc_hd__nand3b_4
*I *436:B I *D sky130_fd_sc_hd__and3b_1
*I *459:B I *D sky130_fd_sc_hd__and3b_1
*I *562:X O *D sky130_fd_sc_hd__buf_2
*CAP
1 *430:A 1.21044e-05
2 *429:B 7.09565e-05
3 *443:B 9.79893e-06
4 *453:A 0
5 *433:C_N 0.000108801
6 *434:B 4.60563e-05
7 *444:B 0
8 *439:A_N 5.02911e-05
9 *436:B 8.85776e-05
10 *459:B 0.000105058
11 *562:X 4.08727e-06
12 *155:99 0.000272119
13 *155:86 0.000200191
14 *155:73 0.000170794
15 *155:64 0.000220937
16 *155:57 0.000253803
17 *155:33 0.00045804
18 *155:29 0.000515397
19 *155:25 0.000128171
20 *155:8 0.000161075
21 *429:B *156:31 4.99619e-05
22 *429:B *156:40 6.90876e-05
23 *433:C_N *433:A 0.000139252
24 *433:C_N *156:67 5.23362e-05
25 *436:B *156:88 0
26 *443:B *453:C_N 5.4155e-06
27 *443:B *156:22 0
28 *443:B *156:31 0
29 *443:B *156:40 4.00541e-06
30 *155:29 *430:C_N 0
31 *155:29 *156:88 9.30717e-05
32 *155:57 *156:82 0.000126679
33 *155:57 *156:88 7.06865e-05
34 *155:64 *444:A 4.66108e-05
35 *155:64 *156:67 4.77719e-05
36 *155:64 *156:69 0.000158536
37 *155:73 *156:53 2.49909e-05
38 *155:86 *156:53 2.0514e-05
39 *155:99 *453:C_N 0
40 *155:99 *156:40 5.30673e-05
41 *155:99 *156:53 0.000229369
42 *436:C *430:A 7.60921e-05
43 *436:C *155:25 0.000199498
44 *445:A *434:B 0
45 *445:A *155:64 5.83121e-06
46 *453:B *155:73 8.40269e-05
47 *453:B *155:86 3.83041e-05
48 *453:B *155:99 0.000105782
49 *460:A *155:57 1.07797e-05
50 *562:A *155:25 5.53249e-06
51 *80:52 *436:B 2.46089e-05
52 *84:10 *433:C_N 0
53 *84:10 *155:99 2.06762e-05
54 *89:14 *155:33 0.000233561
55 *102:12 *155:99 4.82919e-05
56 *146:14 *430:A 8.60799e-05
57 *146:14 *436:B 3.00381e-05
58 *146:14 *155:25 0.000196669
59 *154:19 *459:B 0
60 *154:30 *459:B 0
61 *154:30 *155:57 0
62 *154:58 *155:64 1.42704e-05
63 *154:67 *155:64 1.08758e-05
64 *154:67 *155:73 3.57349e-05
*RES
1 *562:X *155:8 3.8325 
2 *155:8 *459:B 5.3025 
3 *155:8 *155:25 4.3175 
4 *155:25 *155:29 3.635 
5 *155:29 *155:33 5.9 
6 *155:33 *436:B 6.92 
7 *155:33 *439:A_N 2.47 
8 *155:29 *155:57 4.655 
9 *155:57 *444:B 1.6 
10 *155:57 *155:64 2.52 
11 *155:64 *434:B 2.47 
12 *155:64 *155:73 1.14 
13 *155:73 *433:C_N 7.745 
14 *155:73 *155:86 0.45 
15 *155:86 *453:A 1.6 
16 *155:86 *155:99 4.98 
17 *155:99 *443:B 1.96 
18 *155:99 *429:B 3.085 
19 *155:25 *430:A 2.395 
*END

*D_NET *156 0.00801088
*CONN
*I *433:A I *D sky130_fd_sc_hd__nor3b_1
*I *434:A I *D sky130_fd_sc_hd__and3_2
*I *439:C I *D sky130_fd_sc_hd__nand3b_4
*I *459:C I *D sky130_fd_sc_hd__and3b_1
*I *436:A_N I *D sky130_fd_sc_hd__and3b_1
*I *430:C_N I *D sky130_fd_sc_hd__or3b_2
*I *444:A I *D sky130_fd_sc_hd__or3b_4
*I *453:C_N I *D sky130_fd_sc_hd__nor3b_2
*I *443:A I *D sky130_fd_sc_hd__nor2_2
*I *429:A I *D sky130_fd_sc_hd__or2_2
*I *563:X O *D sky130_fd_sc_hd__buf_4
*CAP
1 *433:A 0.000120886
2 *434:A 0
3 *439:C 0
4 *459:C 9.99423e-05
5 *436:A_N 4.12703e-05
6 *430:C_N 4.13411e-05
7 *444:A 5.69325e-05
8 *453:C_N 1.88809e-05
9 *443:A 0
10 *429:A 0
11 *563:X 0.000868086
12 *156:108 9.99423e-05
13 *156:88 0.000282497
14 *156:82 0.000254808
15 *156:69 0.000142506
16 *156:67 0.000225891
17 *156:53 0.000524861
18 *156:40 0.000296975
19 *156:31 0.000140816
20 *156:22 0.000939544
21 *156:22 *573:A 0.00027042
22 *156:22 *158:6 0.000146783
23 *156:22 *175:41 0.00013254
24 *429:B *156:31 4.99619e-05
25 *429:B *156:40 6.90876e-05
26 *431:A2_N *156:22 9.47099e-06
27 *431:B1 *156:22 0.000124895
28 *433:B *433:A 0.00018998
29 *433:B *156:67 9.31189e-05
30 *433:C_N *433:A 0.000139252
31 *433:C_N *156:67 5.23362e-05
32 *436:B *156:88 0
33 *438:A2 *156:22 4.77757e-05
34 *438:B1 *156:22 4.99619e-05
35 *439:B *459:C 0.000269299
36 *441:C *156:22 8.88715e-05
37 *441:D *156:22 9.40338e-05
38 *442:A *156:22 8.19622e-05
39 *443:B *453:C_N 5.4155e-06
40 *443:B *156:22 0
41 *443:B *156:31 0
42 *443:B *156:40 4.00541e-06
43 *445:A *444:A 2.3249e-05
44 *460:A *459:C 0.00011201
45 *460:A *156:82 9.14049e-05
46 *92:12 *156:40 4.60584e-05
47 *92:12 *156:53 0.000129422
48 *146:14 *436:A_N 7.49304e-05
49 *146:14 *156:88 0.000198339
50 *146:35 *156:22 0.00011125
51 *146:39 *156:22 1.08758e-05
52 *154:58 *444:A 8.35068e-05
53 *154:58 *156:67 3.72418e-05
54 *154:58 *156:69 0.000146942
55 *155:29 *430:C_N 0
56 *155:29 *156:88 9.30717e-05
57 *155:57 *156:82 0.000126679
58 *155:57 *156:88 7.06865e-05
59 *155:64 *444:A 4.66108e-05
60 *155:64 *156:67 4.77719e-05
61 *155:64 *156:69 0.000158536
62 *155:73 *156:53 2.49909e-05
63 *155:86 *156:53 2.0514e-05
64 *155:99 *453:C_N 0
65 *155:99 *156:40 5.30673e-05
66 *155:99 *156:53 0.000229369
*RES
1 *563:X *156:22 20.885 
2 *156:22 *429:A 1.6 
3 *156:22 *156:31 1.5 
4 *156:31 *443:A 1.6 
5 *156:31 *156:40 2.19 
6 *156:40 *453:C_N 1.96 
7 *156:40 *156:53 6.26 
8 *156:53 *156:67 5.795 
9 *156:67 *156:69 1.485 
10 *156:69 *444:A 3.01 
11 *156:69 *156:82 3.635 
12 *156:82 *156:88 5.72 
13 *156:88 *430:C_N 6.215 
14 *156:88 *436:A_N 2.395 
15 *156:82 *156:108 2 
16 *156:108 *459:C 4.48 
17 *156:108 *439:C 1.6 
18 *156:67 *434:A 1.6 
19 *156:53 *433:A 6.75 
*END

*D_NET *157 0.00863799
*CONN
*I *454:A I *D sky130_fd_sc_hd__nand2_1
*I *455:A I *D sky130_fd_sc_hd__or2_1
*I *461:A1_N I *D sky130_fd_sc_hd__a2bb2o_1
*I *435:B2 I *D sky130_fd_sc_hd__a32o_1
*I *472:B2 I *D sky130_fd_sc_hd__a2bb2o_1
*I *449:B1 I *D sky130_fd_sc_hd__a21o_1
*I *448:A I *D sky130_fd_sc_hd__and3_1
*I *564:X O *D sky130_fd_sc_hd__clkbuf_2
*CAP
1 *454:A 0.000383002
2 *455:A 0.000143083
3 *461:A1_N 2.60825e-05
4 *435:B2 0.000228062
5 *472:B2 0.000238797
6 *449:B1 6.83481e-05
7 *448:A 0
8 *564:X 0.0004818
9 *157:75 0.000658954
10 *157:44 0.000710612
11 *157:42 0.000246858
12 *157:38 0.000941671
13 *157:12 0.000105395
14 *157:10 0.00104075
15 *435:B2 *451:B_N 0.00020779
16 *435:B2 *550:A 0
17 *435:B2 *175:27 4.1652e-06
18 *461:A1_N *533:A3 8.52845e-05
19 *472:B2 *462:A1 4.66108e-05
20 *157:10 *550:C 0.000164712
21 *157:10 *160:8 4.66108e-05
22 *157:38 *471:A1 1.24708e-05
23 *157:38 *550:A 0
24 *157:38 *550:C 0.000336837
25 *448:B *449:B1 8.94167e-05
26 *448:C *449:B1 0.000116425
27 *454:B *454:A 1.77945e-05
28 *455:B *454:A 2.49909e-05
29 *457:A *472:B2 0.000109489
30 *458:A1 *454:A 6.80137e-05
31 *458:A1 *157:38 2.36331e-05
32 *458:A1 *157:42 3.54721e-05
33 *458:A2 *454:A 8.64566e-05
34 *458:A3 *454:A 8.12896e-06
35 *461:A2_N *435:B2 6.16226e-06
36 *461:B1 *472:B2 9.99231e-05
37 *462:A2 *454:A 1.15276e-05
38 *462:B1 *157:38 0.000112279
39 *462:B2 *454:A 1.73e-05
40 *462:C1 *157:38 7.61533e-06
41 *462:C1 *157:42 6.90254e-05
42 *462:C1 *157:75 0.000252216
43 *463:C1 *157:38 0.000257009
44 *468:B *157:10 0
45 *472:B1 *472:B2 6.54763e-05
46 *475:A1 *449:B1 0
47 *475:A1 *157:10 0
48 *475:A1 *157:38 0
49 *475:A3 *157:10 0.000231783
50 *475:B1 *157:38 0
51 *532:A *455:A 7.08554e-05
52 *536:B1 *461:A1_N 2.68464e-05
53 *536:C1 *435:B2 0
54 *536:C1 *157:75 0
55 *95:14 *157:38 0
56 *102:42 *455:A 1.91597e-05
57 *103:6 *454:A 7.18107e-06
58 *112:10 *157:10 0.000189426
59 *112:25 *157:10 0.000172549
60 *147:66 *454:A 2.10905e-05
61 *149:14 *435:B2 6.54596e-05
62 *149:14 *455:A 4.77769e-05
63 *149:14 *472:B2 8.76122e-05
64 *149:14 *157:44 2.1553e-05
65 *149:14 *157:75 2.04531e-05
*RES
1 *564:X *157:10 13.725 
2 *157:10 *157:12 0.45 
3 *157:12 *448:A 3.6 
4 *157:12 *449:B1 5.715 
5 *157:10 *157:38 11.115 
6 *157:38 *157:42 2.87 
7 *157:42 *157:44 0.795 
8 *157:44 *472:B2 9.605 
9 *157:44 *157:75 7.01393 
10 *157:75 *435:B2 7.53 
11 *157:75 *461:A1_N 4.395 
12 *157:42 *455:A 4.405 
13 *157:38 *454:A 8.715 
*END

*D_NET *158 0.00611074
*CONN
*I *550:A I *D sky130_fd_sc_hd__or3_4
*I *573:A I *D sky130_fd_sc_hd__clkbuf_4
*I *442:X O *D sky130_fd_sc_hd__buf_1
*CAP
1 *550:A 0.000913246
2 *573:A 0.000621248
3 *442:X 0.000112264
4 *158:6 0.00164676
5 *550:A *471:A1 5.53549e-06
6 *550:A *175:27 1.44259e-05
7 *550:A *175:67 0
8 *573:A *432:A1 0
9 *573:A *578:A 0.00017043
10 *573:A *175:41 7.1009e-05
11 *432:A2 *573:A 2.49909e-05
12 *432:B1 *573:A 0.000115144
13 *435:B2 *550:A 0
14 *438:A2 *550:A 9.37731e-05
15 *438:B1 *550:A 7.96104e-06
16 *441:A *573:A 0.000232105
17 *457:A *550:A 0.000356002
18 *461:B1 *550:A 8.62842e-05
19 *461:B2 *550:A 0.000200056
20 *462:B1 *550:A 0
21 *462:C1 *550:A 6.90254e-05
22 *471:A2 *550:A 1.92979e-05
23 *471:B2 *550:A 9.86239e-05
24 *475:B1 *550:A 6.55328e-05
25 *534:B1 *550:A 2.05837e-05
26 *536:C1 *550:A 0.000217015
27 *105:10 *550:A 6.90254e-05
28 *146:14 *573:A 0.000307269
29 *146:43 *550:A 0.000155928
30 *149:14 *550:A 0
31 *156:22 *573:A 0.00027042
32 *156:22 *158:6 0.000146783
33 *157:38 *550:A 0
*RES
1 *442:X *158:6 3.085 
2 *158:6 *573:A 18.11 
3 *158:6 *550:A 24.44 
*END

*D_NET *159 0.00284979
*CONN
*I *574:A I *D sky130_fd_sc_hd__clkbuf_4
*I *550:B I *D sky130_fd_sc_hd__or3_4
*I *463:X O *D sky130_fd_sc_hd__a211o_1
*CAP
1 *574:A 0.000502435
2 *550:B 0.00030772
3 *463:X 0.000106793
4 *159:8 0.000916949
5 *574:A *174:22 0
6 *450:A *550:B 4.89295e-05
7 *450:B_N *550:B 0.000249782
8 *450:B_N *574:A 6.45236e-05
9 *452:A *550:B 8.64421e-05
10 *463:A2 *159:8 4.66108e-05
11 *464:A2 *550:B 8.5242e-05
12 *464:A2 *574:A 0.0003175
13 *464:B1 *574:A 0
14 *100:10 *550:B 0.00011686
*RES
1 *463:X *159:8 4.74 
2 *159:8 *550:B 9.555 
3 *159:8 *574:A 12.885 
*END

*D_NET *160 0.0030686
*CONN
*I *575:A I *D sky130_fd_sc_hd__clkbuf_4
*I *550:C I *D sky130_fd_sc_hd__or3_4
*I *475:X O *D sky130_fd_sc_hd__a31o_1
*CAP
1 *575:A 0.000404272
2 *550:C 0.000392628
3 *475:X 3.69588e-05
4 *160:8 0.000833858
5 *575:A *174:22 6.57306e-05
6 *450:A *550:C 0
7 *452:A *550:C 6.14689e-05
8 *463:C1 *550:C 0
9 *464:B1 *550:C 9.206e-05
10 *570:A *575:A 8.64421e-05
11 *112:10 *550:C 0.000187766
12 *112:25 *550:C 0.000160016
13 *112:25 *575:A 6.06948e-05
14 *147:16 *550:C 0.000138551
15 *157:10 *550:C 0.000164712
16 *157:10 *160:8 4.66108e-05
17 *157:38 *550:C 0.000336837
*RES
1 *475:X *160:8 4.05 
2 *160:8 *550:C 13.95 
3 *160:8 *575:A 10.725 
*END

*D_NET *161 0.00440167
*CONN
*I *576:A I *D sky130_fd_sc_hd__clkbuf_4
*I *551:A I *D sky130_fd_sc_hd__or3_4
*I *491:X O *D sky130_fd_sc_hd__o22a_1
*CAP
1 *576:A 0.00167641
2 *551:A 4.02437e-05
3 *491:X 0.000138314
4 *161:10 0.00185497
5 *576:A *577:A 0.000160536
6 *161:10 *577:A 2.59981e-05
7 *161:10 *170:92 0
8 *505:A3 *161:10 0
9 *527:A2 *576:A 0.000153298
10 *527:C1 *576:A 0.000117038
11 *528:A2 *576:A 1.34503e-05
12 *551:C *551:A 8.49205e-05
13 *56:10 *576:A 8.65961e-05
14 *92:82 *161:10 4.98942e-05
*RES
1 *491:X *161:10 5.685 
2 *161:10 *551:A 4.395 
3 *161:10 *576:A 25.905 
*END

*D_NET *162 0.00296135
*CONN
*I *577:A I *D sky130_fd_sc_hd__clkbuf_4
*I *551:B I *D sky130_fd_sc_hd__or3_4
*I *505:X O *D sky130_fd_sc_hd__o32a_1
*CAP
1 *577:A 0.000501852
2 *551:B 0
3 *505:X 0.000220944
4 *162:6 0.000722796
5 *577:A *478:A 0.000240593
6 *577:A *170:92 0.000784316
7 *483:B *577:A 4.58265e-05
8 *484:B *577:A 3.29269e-05
9 *505:A3 *162:6 4.82863e-05
10 *551:C *577:A 8.49205e-05
11 *551:C *162:6 4.82863e-05
12 *576:A *577:A 0.000160536
13 *124:8 *577:A 4.40643e-05
14 *161:10 *577:A 2.59981e-05
*RES
1 *505:X *162:6 4.81 
2 *162:6 *551:B 1.6 
3 *162:6 *577:A 19.25 
*END

*D_NET *163 0.00635336
*CONN
*I *552:A I *D sky130_fd_sc_hd__nor4_4
*I *578:A I *D sky130_fd_sc_hd__clkbuf_4
*I *522:X O *D sky130_fd_sc_hd__o21a_1
*CAP
1 *552:A 8.3691e-05
2 *578:A 0.000747564
3 *522:X 0.000586407
4 *163:8 0.00141766
5 *552:A *581:A 7.4027e-05
6 *552:A *168:20 0
7 *552:A *175:67 4.82117e-05
8 *578:A *435:A3 0.000312406
9 *578:A *169:18 0.000208244
10 *578:A *173:45 0
11 *578:A *175:41 8.14613e-05
12 *578:A *175:67 0.000280229
13 *163:8 *552:C 8.69182e-05
14 *432:B1 *578:A 1.94636e-05
15 *440:B *578:A 0
16 *441:A *578:A 0.000118491
17 *441:B *578:A 5.24879e-05
18 *470:A2 *578:A 0
19 *470:B1 *578:A 0
20 *472:A2_N *578:A 0.000173279
21 *474:A *552:A 3.09233e-05
22 *474:A *578:A 0.00011852
23 *474:B *578:A 0.000239387
24 *474:C *552:A 1.07797e-05
25 *474:C *578:A 2.4997e-05
26 *474:C *163:8 4.82919e-05
27 *522:A1 *163:8 0.000122701
28 *534:B1 *578:A 2.33678e-05
29 *545:B1 *163:8 0.000455497
30 *573:A *578:A 0.00017043
31 *79:12 *163:8 0.000817926
*RES
1 *522:X *163:8 16.815 
2 *163:8 *578:A 22.065 
3 *163:8 *552:A 5.745 
*END

*D_NET *164 0.00475871
*CONN
*I *552:B I *D sky130_fd_sc_hd__nor4_4
*I *579:A I *D sky130_fd_sc_hd__clkbuf_4
*I *537:Y O *D sky130_fd_sc_hd__o21ai_1
*CAP
1 *552:B 0.00113744
2 *579:A 0.000406701
3 *537:Y 0
4 *164:4 0.00154414
5 *552:B *493:A1 8.82396e-05
6 *552:B *537:B1 0.000164664
7 *579:A *537:B1 7.00889e-06
8 *491:A1 *552:B 1.61831e-05
9 *491:A2 *552:B 1.03423e-05
10 *494:A2 *552:B 0.000307842
11 *494:A3 *552:B 2.896e-05
12 *494:B1 *552:B 0.000197269
13 *544:A1 *579:A 4.66108e-05
14 *544:B1 *579:A 9.66106e-05
15 *551:C *552:B 0.00017265
16 *552:D *552:B 0.000122331
17 *92:82 *552:B 0.000175381
18 *150:14 *552:B 9.47972e-06
19 *150:14 *579:A 0.000192865
20 *150:23 *552:B 3.39942e-05
*RES
1 *537:Y *164:4 1.6 
2 *164:4 *579:A 8.26 
3 *164:4 *552:B 19.9 
*END

*D_NET *165 0.00745662
*CONN
*I *552:C I *D sky130_fd_sc_hd__nor4_4
*I *580:A I *D sky130_fd_sc_hd__clkbuf_4
*I *549:Y O *D sky130_fd_sc_hd__a21oi_1
*CAP
1 *552:C 0.000732796
2 *580:A 0.000995892
3 *549:Y 6.65226e-05
4 *165:8 0.00179521
5 *552:C *537:B1 0.000565662
6 *552:C *168:20 5.42646e-05
7 *492:B1 *552:C 0.000179721
8 *492:B1 *165:8 4.82863e-05
9 *500:A *580:A 0.000160338
10 *500:B *580:A 7.11365e-05
11 *512:A *580:A 0.000114518
12 *522:A1 *552:C 0.000192997
13 *522:B1 *552:C 8.35106e-05
14 *523:B1 *580:A 0
15 *527:B1 *580:A 0
16 *529:A2 *580:A 0.000137414
17 *544:B1 *580:A 0
18 *545:A1 *580:A 4.66108e-05
19 *545:A3 *580:A 1.34594e-05
20 *545:B1 *552:C 9.47267e-06
21 *545:B1 *580:A 6.9725e-05
22 *545:B1 *165:8 9.05959e-05
23 *549:A1 *552:C 1.16578e-05
24 *549:A1 *580:A 0.000344805
25 *549:A2 *580:A 4.99619e-05
26 *40:10 *580:A 0.000113988
27 *55:16 *580:A 0.000378968
28 *56:10 *580:A 0.000102216
29 *79:12 *552:C 0.000827914
30 *94:40 *580:A 0
31 *94:55 *580:A 0
32 *143:6 *580:A 3.57349e-05
33 *145:8 *580:A 0
34 *148:30 *552:C 7.63282e-05
35 *163:8 *552:C 8.69182e-05
*RES
1 *549:Y *165:8 3.265 
2 *165:8 *580:A 26.885 
3 *165:8 *552:C 22.52 
*END

*D_NET *166 0.00121549
*CONN
*I *581:A I *D sky130_fd_sc_hd__buf_6
*I *552:Y O *D sky130_fd_sc_hd__nor4_4
*CAP
1 *581:A 0.000508736
2 *552:Y 0.000508736
3 *581:A *175:67 7.4027e-05
4 *475:B1 *581:A 4.99619e-05
5 *552:A *581:A 7.4027e-05
*RES
1 *552:Y *581:A 14.76 
*END

*D_NET *167 0.00289466
*CONN
*I *537:B1 I *D sky130_fd_sc_hd__o21ai_1
*I *582:X O *D sky130_fd_sc_hd__clkbuf_1
*CAP
1 *537:B1 0.000693979
2 *582:X 0.000693979
3 *537:B1 *171:36 1.59888e-05
4 *537:B1 *171:64 0.000345087
5 *493:B1 *537:B1 8.02342e-05
6 *548:C1 *537:B1 0
7 *552:B *537:B1 0.000164664
8 *552:C *537:B1 0.000565662
9 *579:A *537:B1 7.00889e-06
10 *79:41 *537:B1 2.59981e-05
11 *87:44 *537:B1 2.47394e-05
12 *150:14 *537:B1 0.000277321
*RES
1 *582:X *537:B1 24.82 
*END

*D_NET *168 0.0096589
*CONN
*I *467:A I *D sky130_fd_sc_hd__xnor2_1
*I *481:A I *D sky130_fd_sc_hd__and2_1
*I *473:A1 I *D sky130_fd_sc_hd__a32o_1
*I *470:A1 I *D sky130_fd_sc_hd__a21oi_1
*I *471:A1 I *D sky130_fd_sc_hd__o22a_1
*I *472:A1_N I *D sky130_fd_sc_hd__a2bb2o_1
*I *462:A1 I *D sky130_fd_sc_hd__a221o_1
*I *489:B2 I *D sky130_fd_sc_hd__a32o_1
*I *565:X O *D sky130_fd_sc_hd__buf_2
*CAP
1 *467:A 6.4962e-05
2 *481:A 0
3 *473:A1 0
4 *470:A1 0
5 *471:A1 0.000317021
6 *472:A1_N 0
7 *462:A1 0.000143812
8 *489:B2 0.000142127
9 *565:X 0.0017619
10 *168:100 6.4962e-05
11 *168:47 0.000206967
12 *168:43 0.00043771
13 *168:39 9.37914e-05
14 *168:24 0.0002432
15 *168:20 0.000962971
16 *168:14 0.00266006
17 *168:14 *171:12 4.77769e-05
18 *168:14 *172:18 0.000235344
19 *168:20 *465:A1 5.92269e-05
20 *168:20 *175:67 0
21 *168:20 *175:77 5.39797e-05
22 result[4] *168:14 1.77238e-05
23 *457:A *471:A1 8.52883e-05
24 *462:A2 *462:A1 0.000330149
25 *462:A2 *168:39 3.06569e-06
26 *462:A2 *168:43 8.28018e-06
27 *462:A2 *168:47 6.04372e-05
28 *462:B1 *471:A1 3.45117e-05
29 *462:B2 *462:A1 7.04624e-05
30 *462:B2 *471:A1 6.63537e-06
31 *466:B *168:20 0.000190027
32 *467:B *467:A 8.41384e-05
33 *470:A2 *168:20 9.12494e-06
34 *470:A2 *168:24 0.00011272
35 *470:A2 *168:43 4.77807e-05
36 *470:B1 *489:B2 2.97339e-05
37 *470:B1 *168:47 0
38 *471:A2 *471:A1 2.68526e-05
39 *471:A2 *168:20 3.15045e-05
40 *471:B2 *471:A1 9.94053e-05
41 *471:B2 *489:B2 9.83921e-06
42 *472:A2_N *462:A1 2.0187e-05
43 *472:A2_N *471:A1 0.000119873
44 *472:A2_N *168:47 8.35157e-05
45 *472:B1 *462:A1 4.3364e-05
46 *472:B1 *471:A1 0.000119873
47 *472:B2 *462:A1 4.66108e-05
48 *473:B1 *489:B2 5.13924e-05
49 *474:B *168:20 0
50 *474:C *168:20 0
51 *475:B1 *168:20 0
52 *550:A *471:A1 5.53549e-06
53 *552:A *168:20 0
54 *552:C *168:20 5.42646e-05
55 *79:8 *168:20 0
56 *114:12 *168:14 2.07338e-05
57 *114:12 *168:20 0.000114649
58 *148:14 *168:14 7.15997e-05
59 *148:14 *168:20 8.44308e-05
60 *148:20 *168:20 0
61 *148:22 *168:20 0
62 *148:30 *168:20 0
63 *149:31 *489:B2 5.69057e-05
64 *157:38 *471:A1 1.24708e-05
*RES
1 *565:X *168:14 26.505 
2 *168:14 *168:20 16.98 
3 *168:20 *168:24 3.38 
4 *168:24 *489:B2 7.7 
5 *168:24 *168:39 0.45 
6 *168:39 *168:43 1.155 
7 *168:43 *168:47 1.755 
8 *168:47 *462:A1 6.34 
9 *168:47 *472:A1_N 1.6 
10 *168:43 *471:A1 11.795 
11 *168:39 *470:A1 1.6 
12 *168:20 *473:A1 3.6 
13 *168:14 *168:100 2 
14 *168:100 *481:A 1.6 
15 *168:100 *467:A 2.74 
*END

*D_NET *169 0.00788234
*CONN
*I *473:A3 I *D sky130_fd_sc_hd__a32o_1
*I *489:A3 I *D sky130_fd_sc_hd__a32o_1
*I *456:A I *D sky130_fd_sc_hd__inv_2
*I *533:A3 I *D sky130_fd_sc_hd__a31o_1
*I *435:A3 I *D sky130_fd_sc_hd__a32o_1
*I *572:X O *D sky130_fd_sc_hd__clkbuf_2
*CAP
1 *473:A3 0.000395399
2 *489:A3 0
3 *456:A 8.35497e-05
4 *533:A3 0.000188036
5 *435:A3 0.00015371
6 *572:X 0.000320666
7 *169:57 0.000526568
8 *169:18 0.000417707
9 *169:14 0.000394963
10 *169:10 0.000687288
11 *435:A3 *435:A1 0
12 *435:A3 *175:31 0.0001676
13 *435:A3 *175:41 2.30292e-05
14 *435:A3 *175:67 0.000268601
15 *473:A3 *473:B2 1.91597e-05
16 *533:A3 *533:A1 1.24578e-05
17 *533:A3 *173:37 0.000384296
18 *169:10 *174:36 0.000318091
19 *169:14 *173:45 0.000337861
20 *169:18 *175:67 0.000216942
21 *440:B *435:A3 0
22 *461:A1_N *533:A3 8.52845e-05
23 *461:B1 *533:A3 4.82919e-05
24 *473:B1 *473:A3 0.000210607
25 *487:A1 *169:57 0.000131022
26 *487:A3 *473:A3 4.58262e-06
27 *534:B1 *435:A3 2.42236e-05
28 *536:B1 *533:A3 2.88513e-05
29 *536:C1 *533:A3 0.000213854
30 *578:A *435:A3 0.000312406
31 *578:A *169:18 0.000208244
32 *582:A *169:10 0.000132258
33 *582:A *169:57 0.000103556
34 *79:8 *473:A3 8.55624e-05
35 *79:8 *169:10 0.000303297
36 *79:8 *169:57 0.000340741
37 *84:25 *169:14 0.000155608
38 *87:14 *169:10 0
39 *87:69 *473:A3 1.60006e-05
40 *105:10 *456:A 6.72833e-06
41 *146:39 *435:A3 0.000160635
42 *146:63 *435:A3 4.66108e-05
43 *148:30 *473:A3 4.20554e-05
44 *149:31 *473:A3 8.53011e-05
45 *149:37 *473:A3 7.64752e-05
46 *152:59 *456:A 5.37195e-05
47 *152:59 *533:A3 4.6368e-06
48 *152:59 *169:14 8.58623e-05
*RES
1 *572:X *169:10 10.14 
2 *169:10 *169:14 7.28 
3 *169:14 *169:18 4.655 
4 *169:18 *435:A3 9.465 
5 *169:18 *533:A3 9.375 
6 *169:14 *456:A 3.085 
7 *169:10 *169:57 4.185 
8 *169:57 *489:A3 3.6 
9 *169:57 *473:A3 13.705 
*END

*D_NET *170 0.0129996
*CONN
*I *479:A I *D sky130_fd_sc_hd__or2_1
*I *478:A I *D sky130_fd_sc_hd__nand2_1
*I *502:A1 I *D sky130_fd_sc_hd__a21o_1
*I *473:B2 I *D sky130_fd_sc_hd__a32o_1
*I *486:A I *D sky130_fd_sc_hd__or2_1
*I *488:A1_N I *D sky130_fd_sc_hd__a2bb2o_1
*I *489:A1 I *D sky130_fd_sc_hd__a32o_1
*I *485:A I *D sky130_fd_sc_hd__nand2_1
*I *496:B2 I *D sky130_fd_sc_hd__a221o_1
*I *566:X O *D sky130_fd_sc_hd__buf_2
*CAP
1 *479:A 0.000158778
2 *478:A 0.000126652
3 *502:A1 0.000139353
4 *473:B2 7.47573e-05
5 *486:A 0
6 *488:A1_N 0
7 *489:A1 0
8 *485:A 6.09322e-05
9 *496:B2 2.21967e-05
10 *566:X 0.0014602
11 *170:94 0.000329706
12 *170:92 0.000734723
13 *170:70 0.000140265
14 *170:45 0.000165355
15 *170:35 0.00016898
16 *170:31 0.000174289
17 *170:29 0.000966448
18 *170:16 0.00189237
19 *170:16 *547:A1 0
20 *170:16 *172:49 1.19928e-05
21 *170:29 *496:A1 1.07285e-05
22 *473:A3 *473:B2 1.91597e-05
23 *473:B1 *473:B2 8.53011e-05
24 *477:B *170:92 0.000120186
25 *479:B *479:A 0.00011016
26 *479:B *502:A1 8.23457e-05
27 *479:B *170:94 7.14699e-05
28 *480:A *478:A 1.92113e-05
29 *483:B *170:92 7.03219e-05
30 *484:A *479:A 2.0187e-05
31 *484:B *478:A 7.22509e-05
32 *486:B *473:B2 4.64676e-05
33 *486:B *170:70 4.77807e-05
34 *487:A3 *170:35 2.3228e-05
35 *488:A2_N *170:35 4.28112e-06
36 *490:A2 *170:31 1.21329e-05
37 *490:A2 *170:35 1.46781e-05
38 *490:A2 *170:70 8.23457e-05
39 *490:B1 *170:31 2.98644e-05
40 *490:B1 *170:35 9.05535e-05
41 *490:C1 *170:70 4.77769e-05
42 *491:A2 *170:92 0.000416849
43 *491:B1 *170:31 1.79455e-05
44 *491:B1 *170:35 3.4037e-05
45 *491:B1 *170:92 4.24292e-06
46 *491:B2 *170:29 8.57024e-05
47 *491:B2 *170:92 0.000157107
48 *496:A2 *170:29 0.000161757
49 *496:B1 *170:16 6.35186e-05
50 *496:B1 *170:29 2.92214e-05
51 *502:A2 *502:A1 8.52972e-05
52 *505:A3 *170:29 0.000121437
53 *536:A2 *485:A 0.000167424
54 *546:A2 *170:16 4.9968e-05
55 *549:B1 *170:16 0.000459324
56 *551:C *170:92 2.60908e-05
57 *552:D *170:92 1.01661e-05
58 *577:A *478:A 0.000240593
59 *577:A *170:92 0.000784316
60 *582:A *170:45 7.54454e-05
61 *79:8 *485:A 0.000197434
62 *80:14 *170:16 0
63 *87:52 *170:29 0.000113162
64 *87:69 *473:B2 0.000100061
65 *87:69 *170:29 4.82863e-05
66 *87:69 *170:70 7.2875e-05
67 *89:14 *170:16 0.000460131
68 *89:27 *170:16 0.0002983
69 *92:82 *170:92 0.000116853
70 *94:14 *170:16 0.000163224
71 *109:57 *170:45 0.000270809
72 *109:61 *485:A 3.1814e-05
73 *124:8 *478:A 4.43871e-06
74 *124:21 *478:A 9.27022e-05
75 *129:10 *479:A 1.08105e-05
76 *129:14 *502:A1 1.19028e-05
77 *133:6 *170:70 4.66108e-05
78 *148:30 *473:B2 0.00012398
79 *149:31 *170:45 3.62939e-05
80 *149:37 *170:45 5.12898e-05
81 *149:50 *170:31 0
82 *149:50 *170:92 0
83 *154:54 *170:16 5.0751e-05
84 *161:10 *170:92 0
*RES
1 *566:X *170:16 30.1737 
2 *170:16 *496:B2 1.96 
3 *170:16 *170:29 9.70625 
4 *170:29 *170:31 0.87 
5 *170:31 *170:35 3.635 
6 *170:35 *170:45 3.4575 
7 *170:45 *485:A 8 
8 *170:45 *489:A1 1.6 
9 *170:35 *488:A1_N 1.6 
10 *170:31 *170:70 3.83 
11 *170:70 *486:A 1.6 
12 *170:70 *473:B2 4.135 
13 *170:29 *170:92 17.195 
14 *170:92 *170:94 0.795 
15 *170:94 *502:A1 3.43 
16 *170:94 *478:A 9.245 
17 *170:92 *479:A 3.79 
*END

*D_NET *171 0.00803485
*CONN
*I *497:A I *D sky130_fd_sc_hd__inv_2
*I *494:A1 I *D sky130_fd_sc_hd__a31o_1
*I *488:B2 I *D sky130_fd_sc_hd__a2bb2o_1
*I *521:A1 I *D sky130_fd_sc_hd__a211o_1
*I *495:A I *D sky130_fd_sc_hd__nor2_1
*I *493:A1 I *D sky130_fd_sc_hd__o22a_1
*I *492:A1 I *D sky130_fd_sc_hd__a21oi_1
*I *567:X O *D sky130_fd_sc_hd__clkbuf_2
*CAP
1 *497:A 0
2 *494:A1 0
3 *488:B2 9.47159e-05
4 *521:A1 9.84392e-05
5 *495:A 0
6 *493:A1 2.91502e-05
7 *492:A1 0
8 *567:X 0.00014403
9 *171:66 0.000131361
10 *171:64 0.000339231
11 *171:60 0.000547423
12 *171:36 0.000277559
13 *171:24 0.00141661
14 *171:12 0.000976402
15 *171:24 *172:39 0.000574828
16 *171:36 *172:39 7.23602e-05
17 *171:60 *172:39 0
18 *488:B1 *488:B2 0.000158564
19 *493:B2 *171:36 0.000120407
20 *494:A3 *171:64 7.75981e-05
21 *496:C1 *521:A1 0.000197822
22 *501:A *171:24 0.000227802
23 *504:B *171:24 0.000231651
24 *505:A1 *171:60 6.75314e-05
25 *505:A3 *171:60 0.000179557
26 *505:A3 *171:64 0.000284281
27 *505:B1 *171:24 3.03586e-05
28 *505:B2 *171:60 2.10214e-05
29 *512:A *171:12 2.69443e-06
30 *522:A2 *171:24 2.42236e-05
31 *522:A2 *171:36 2.29406e-05
32 *537:B1 *171:36 1.59888e-05
33 *537:B1 *171:64 0.000345087
34 *552:B *493:A1 8.82396e-05
35 *582:A *488:B2 0.000309081
36 *582:A *521:A1 8.66466e-06
37 *32:6 *171:24 0.000272854
38 *79:41 *171:24 1.75023e-05
39 *79:41 *171:36 2.12738e-05
40 *79:41 *171:64 3.81581e-05
41 *79:43 *171:60 6.90044e-05
42 *87:44 *171:64 1.48851e-05
43 *109:33 *521:A1 9.13949e-06
44 *109:57 *488:B2 0.000142083
45 *109:57 *521:A1 7.85332e-05
46 *109:57 *171:66 4.42148e-05
47 *150:23 *493:A1 0.000121643
48 *150:23 *171:36 4.21579e-05
49 *168:14 *171:12 4.77769e-05
*RES
1 *567:X *171:12 7.685 
2 *171:12 *171:24 20.135 
3 *171:24 *171:36 9.57 
4 *171:36 *492:A1 1.6 
5 *171:36 *493:A1 2.74 
6 *171:24 *171:60 9.055 
7 *171:60 *171:64 7.97 
8 *171:64 *171:66 0.795 
9 *171:66 *495:A 1.6 
10 *171:66 *521:A1 4.495 
11 *171:64 *488:B2 5.635 
12 *171:60 *494:A1 3.6 
13 *171:12 *497:A 1.6 
*END

*D_NET *172 0.00896434
*CONN
*I *496:A1 I *D sky130_fd_sc_hd__a221o_1
*I *516:A I *D sky130_fd_sc_hd__nand2_1
*I *517:A I *D sky130_fd_sc_hd__or2_1
*I *536:A1 I *D sky130_fd_sc_hd__a2111oi_1
*I *519:A1_N I *D sky130_fd_sc_hd__a2bb2o_1
*I *506:A I *D sky130_fd_sc_hd__inv_2
*I *568:X O *D sky130_fd_sc_hd__clkbuf_2
*CAP
1 *496:A1 9.79012e-05
2 *516:A 3.75136e-05
3 *517:A 0
4 *536:A1 0.000257365
5 *519:A1_N 0
6 *506:A 3.56363e-05
7 *568:X 0.000563937
8 *172:61 0.000507775
9 *172:57 0.000486297
10 *172:49 0.000606203
11 *172:39 0.000976721
12 *172:18 0.00114559
13 *536:A1 *173:53 4.22944e-05
14 *172:57 *173:53 7.31203e-06
15 *172:61 *173:53 0.000342511
16 *493:B1 *172:39 0
17 *496:B1 *496:A1 8.4841e-05
18 *496:B1 *172:49 0.000232401
19 *496:C1 *172:39 4.99581e-05
20 *503:A1 *172:18 6.77535e-05
21 *503:A2 *172:18 0.000136177
22 *504:B *172:18 0.000113977
23 *505:B1 *172:18 0.000116611
24 *517:B *172:57 0.000120412
25 *519:A2_N *536:A1 4.89395e-05
26 *519:A2_N *172:61 4.77807e-05
27 *520:B1 *172:61 2.62526e-05
28 *522:A2 *506:A 5.83121e-06
29 *522:A2 *172:39 0.000828237
30 *522:B1 *172:39 0.000181005
31 *536:A2 *536:A1 4.82919e-05
32 *547:B2 *172:57 7.03276e-05
33 *582:A *536:A1 6.1357e-05
34 *46:6 *516:A 8.52845e-05
35 *84:16 *536:A1 2.0187e-05
36 *84:16 *172:61 0.000101704
37 *87:52 *496:A1 3.116e-05
38 *89:56 *536:A1 0.000372769
39 *109:31 *172:49 7.67734e-05
40 *109:31 *172:57 2.39947e-05
41 *168:14 *172:18 0.000235344
42 *170:16 *172:49 1.19928e-05
43 *170:29 *496:A1 1.07285e-05
44 *171:24 *172:39 0.000574828
45 *171:36 *172:39 7.23602e-05
46 *171:60 *172:39 0
*RES
1 *568:X *172:18 16.82 
2 *172:18 *506:A 2.05 
3 *172:18 *172:39 17.965 
4 *172:39 *172:49 7.715 
5 *172:49 *172:57 5.57 
6 *172:57 *172:61 6.24 
7 *172:61 *519:A1_N 1.6 
8 *172:61 *536:A1 11.405 
9 *172:57 *517:A 1.6 
10 *172:49 *516:A 4.395 
11 *172:39 *496:A1 3.1 
*END

*D_NET *173 0.0115299
*CONN
*I *530:A I *D sky130_fd_sc_hd__nand2_1
*I *533:A1 I *D sky130_fd_sc_hd__a31o_1
*I *535:A I *D sky130_fd_sc_hd__nor2_1
*I *519:B2 I *D sky130_fd_sc_hd__a2bb2o_1
*I *538:B I *D sky130_fd_sc_hd__and2b_1
*I *526:A I *D sky130_fd_sc_hd__xor2_1
*I *546:A1 I *D sky130_fd_sc_hd__a22oi_1
*I *531:A I *D sky130_fd_sc_hd__or2_1
*I *569:X O *D sky130_fd_sc_hd__buf_2
*CAP
1 *530:A 0
2 *533:A1 8.48163e-06
3 *535:A 4.85942e-06
4 *519:B2 0
5 *538:B 0
6 *526:A 0.000184448
7 *546:A1 0.000385615
8 *531:A 0.000249506
9 *569:X 0.000158587
10 *173:70 0.000568041
11 *173:53 0.00206767
12 *173:45 0.00159171
13 *173:37 0.000920496
14 *173:31 0.000773838
15 *173:27 0.000142962
16 *173:10 0.000408093
17 *173:53 *547:A1 0.000119251
18 *440:B *173:45 7.9642e-06
19 *461:B1 *173:37 4.99619e-05
20 *472:A2_N *173:45 0.000172351
21 *517:B *173:53 2.0508e-05
22 *525:A *173:53 3.112e-05
23 *526:B *526:A 7.89689e-05
24 *532:B *531:A 0.000179981
25 *533:A3 *533:A1 1.24578e-05
26 *533:A3 *173:37 0.000384296
27 *533:B1 *173:31 4.77719e-05
28 *536:A1 *173:53 4.22944e-05
29 *536:C1 *535:A 4.82919e-05
30 *536:C1 *173:37 7.03425e-05
31 *538:A_N *526:A 2.99026e-05
32 *541:A *546:A1 4.60584e-05
33 *541:B *546:A1 0.000155491
34 *542:A2 *173:70 7.94515e-05
35 *543:A *546:A1 2.66586e-05
36 *546:A2 *546:A1 5.94287e-05
37 *546:B1 *546:A1 5.06066e-05
38 *547:B1 *173:53 2.56854e-05
39 *547:B2 *173:53 0.000133597
40 *548:A1 *173:53 3.70119e-05
41 *548:C1 *173:53 0.000159722
42 *548:C1 *173:70 0
43 *578:A *173:45 0
44 *60:10 *531:A 4.6368e-06
45 *67:12 *546:A1 0
46 *71:8 *173:70 0.000127313
47 *84:16 *173:45 2.88357e-05
48 *84:16 *173:53 3.60237e-05
49 *84:25 *173:45 5.56333e-05
50 *89:56 *173:37 0
51 *94:40 *526:A 0.000164686
52 *100:10 *531:A 3.30762e-05
53 *100:10 *173:10 0.000139291
54 *151:23 *526:A 0
55 *152:19 *531:A 0.000351067
56 *152:28 *533:A1 3.50152e-06
57 *152:28 *173:31 4.65766e-05
58 *152:28 *173:37 1.43396e-05
59 *152:59 *546:A1 0.00011
60 *152:59 *173:37 7.46328e-06
61 *152:59 *173:45 0.000145855
62 *152:59 *173:70 4.04087e-05
63 *169:14 *173:45 0.000337861
64 *172:57 *173:53 7.31203e-06
65 *172:61 *173:53 0.000342511
*RES
1 *569:X *173:10 6.03 
2 *173:10 *531:A 9.48 
3 *173:10 *173:27 2 
4 *173:27 *173:31 2.19 
5 *173:31 *173:37 8.325 
6 *173:37 *173:45 10.735 
7 *173:45 *173:53 18.695 
8 *173:53 *546:A1 10.53 
9 *173:53 *173:70 9.245 
10 *173:70 *526:A 9.32 
11 *173:70 *538:B 1.6 
12 *173:45 *519:B2 1.6 
13 *173:37 *535:A 2.05 
14 *173:31 *533:A1 1.96 
15 *173:27 *530:A 1.6 
*END

*D_NET *174 0.0112867
*CONN
*I *534:A1 I *D sky130_fd_sc_hd__a22o_1
*I *540:A I *D sky130_fd_sc_hd__nand2_1
*I *539:A I *D sky130_fd_sc_hd__or2_1
*I *547:A1 I *D sky130_fd_sc_hd__o221a_1
*I *570:X O *D sky130_fd_sc_hd__clkbuf_2
*CAP
1 *534:A1 0
2 *540:A 0
3 *539:A 0.000127485
4 *547:A1 0.000170805
5 *570:X 0.00216415
6 *174:36 0.00163311
7 *174:22 0.00349897
8 *174:22 *451:B_N 0.000101098
9 result[1] *174:22 4.07391e-05
10 result[2] *174:22 5.74817e-06
11 zero *174:22 8.47169e-05
12 *433:B *174:36 0.000164874
13 *445:A *174:36 8.52845e-05
14 *451:A *174:22 2.19562e-06
15 *464:A2 *174:22 0
16 *532:A *174:22 0.000223521
17 *532:C *174:22 0.000178906
18 *534:A2 *174:36 0.000192493
19 *534:B1 *174:22 1.31227e-05
20 *534:B1 *174:36 2.20014e-05
21 *534:B2 *174:22 4.66608e-05
22 *540:B *539:A 9.09329e-05
23 *547:B1 *547:A1 0.000205598
24 *548:A1 *547:A1 5.83121e-06
25 *548:B1 *547:A1 8.34281e-06
26 *554:A *174:22 1.92979e-05
27 *569:A *174:22 4.68984e-05
28 *572:A *174:36 0.000139257
29 *574:A *174:22 0
30 *575:A *174:22 6.57306e-05
31 *68:10 *547:A1 0.000114492
32 *68:10 *174:36 2.75229e-05
33 *80:14 *547:A1 0.000308229
34 *84:31 *174:36 0.000531735
35 *94:14 *547:A1 1.26548e-05
36 *94:14 *174:36 4.99619e-05
37 *100:10 *174:22 0.000118081
38 *109:10 *174:36 4.89295e-05
39 *147:66 *174:22 0.00030001
40 *169:10 *174:36 0.000318091
41 *170:16 *547:A1 0
42 *173:53 *547:A1 0.000119251
*RES
1 *570:X *174:22 44.21 
2 *174:22 *174:36 23.58 
3 *174:36 *547:A1 11.03 
4 *174:36 *539:A 4.15 
5 *174:36 *540:A 1.6 
6 *174:22 *534:A1 1.6 
*END

*D_NET *175 0.00922069
*CONN
*I *451:B_N I *D sky130_fd_sc_hd__or2b_1
*I *435:A1 I *D sky130_fd_sc_hd__a32o_1
*I *446:A1 I *D sky130_fd_sc_hd__a21bo_1
*I *447:C I *D sky130_fd_sc_hd__nand3b_1
*I *465:A1 I *D sky130_fd_sc_hd__o21a_1
*I *498:A1 I *D sky130_fd_sc_hd__o41a_1
*I *431:A1_N I *D sky130_fd_sc_hd__a2bb2o_1
*I *432:A1 I *D sky130_fd_sc_hd__a21oi_1
*I *438:A1 I *D sky130_fd_sc_hd__o21a_1
*I *571:X O *D sky130_fd_sc_hd__buf_2
*CAP
1 *451:B_N 0.000153678
2 *435:A1 1.16831e-05
3 *446:A1 4.23959e-05
4 *447:C 1.07269e-05
5 *465:A1 3.62972e-05
6 *498:A1 9.89245e-05
7 *431:A1_N 0
8 *432:A1 0.000142182
9 *438:A1 0
10 *571:X 0.000149873
11 *175:77 0.000255948
12 *175:69 0.000162898
13 *175:67 0.000729976
14 *175:41 0.00040638
15 *175:31 0.0010227
16 *175:27 0.000227728
17 *175:14 0.000236761
18 *175:10 0.000426637
19 result[5] *432:A1 4.43871e-06
20 *432:B1 *432:A1 0.00012195
21 *435:A3 *435:A1 0
22 *435:A3 *175:31 0.0001676
23 *435:A3 *175:41 2.30292e-05
24 *435:A3 *175:67 0.000268601
25 *435:B1 *435:A1 1.90932e-05
26 *435:B1 *175:27 2.68464e-05
27 *435:B1 *175:31 8.9697e-05
28 *435:B1 *175:67 1.1561e-05
29 *435:B2 *451:B_N 0.00020779
30 *435:B2 *175:27 4.1652e-06
31 *438:A2 *175:14 4.1652e-06
32 *438:A2 *175:27 6.30983e-05
33 *441:B *175:10 0
34 *441:B *175:14 0
35 *441:D *175:41 6.95739e-05
36 *446:A2 *446:A1 0.000158072
37 *446:A2 *175:69 3.57349e-05
38 *447:B *447:C 1.02153e-05
39 *447:B *175:69 8.75488e-05
40 *451:A *451:B_N 8.73389e-06
41 *457:A *175:67 4.29069e-05
42 *461:B1 *175:67 0.00051895
43 *461:B2 *175:67 4.32962e-05
44 *463:A1 *446:A1 2.75229e-05
45 *465:A2 *465:A1 0.000117832
46 *465:A2 *175:77 9.50342e-06
47 *470:B1 *175:41 0
48 *472:B1 *175:67 3.10946e-05
49 *474:A *175:67 0.000141599
50 *475:B1 *175:67 0.000162412
51 *498:A2 *447:C 2.31547e-05
52 *498:A2 *498:A1 6.97118e-05
53 *498:A2 *175:77 5.78262e-05
54 *534:B1 *175:67 0.000120186
55 *534:B2 *451:B_N 2.6906e-05
56 *550:A *175:27 1.44259e-05
57 *550:A *175:67 0
58 *552:A *175:67 4.82117e-05
59 *573:A *432:A1 0
60 *573:A *175:41 7.1009e-05
61 *578:A *175:41 8.14613e-05
62 *578:A *175:67 0.000280229
63 *581:A *175:67 7.4027e-05
64 *92:82 *446:A1 6.1357e-05
65 *92:82 *175:69 8.95933e-05
66 *92:82 *175:77 8.8266e-05
67 *94:93 *175:77 0
68 *96:12 *175:67 3.09164e-05
69 *96:12 *175:77 0
70 *146:18 *432:A1 0.000158297
71 *146:35 *432:A1 3.09233e-05
72 *146:35 *175:41 0
73 *146:39 *175:41 4.16445e-05
74 *146:63 *175:31 1.91597e-05
75 *147:25 *175:69 1.61831e-05
76 *147:25 *175:77 9.27255e-06
77 *147:27 *447:C 9.53428e-06
78 *147:27 *498:A1 3.26889e-05
79 *149:14 *451:B_N 0.000420186
80 *149:14 *175:10 0.000189914
81 *156:22 *175:41 0.00013254
82 *168:20 *465:A1 5.92269e-05
83 *168:20 *175:67 0
84 *168:20 *175:77 5.39797e-05
85 *169:18 *175:67 0.000216942
86 *174:22 *451:B_N 0.000101098
*RES
1 *571:X *175:10 5.9925 
2 *175:10 *175:14 1.6275 
3 *175:14 *438:A1 3.6 
4 *175:14 *175:27 4.595 
5 *175:27 *175:31 2.535 
6 *175:31 *175:41 9.28 
7 *175:41 *432:A1 8.705 
8 *175:41 *431:A1_N 1.6 
9 *175:31 *175:67 22.06 
10 *175:67 *175:69 1.485 
11 *175:69 *175:77 4.28 
12 *175:77 *498:A1 5.46 
13 *175:77 *465:A1 4.98 
14 *175:69 *447:C 1.96 
15 *175:67 *446:A1 3.085 
16 *175:27 *435:A1 1.96 
17 *175:10 *451:B_N 9.5775 
*END
