*SPEF "ieee 1481-1999"
*DESIGN "alu"
*DATE "11:11:11 Fri 11 11, 1111"
*VENDOR "OpenRCX"
*PROGRAM "Parallel Extraction"
*VERSION "1.0"
*DESIGN_FLOW "NAME_SCOPE LOCAL" "PIN_CAP NONE"
*DIVIDER /
*DELIMITER :
*BUS_DELIMITER []
*T_UNIT 1 NS
*C_UNIT 1 PF
*R_UNIT 1 OHM
*L_UNIT 1 HENRY

*NAME_MAP
*3 a[0]
*4 a[1]
*5 a[2]
*6 a[3]
*7 a[4]
*8 a[5]
*9 a[6]
*10 a[7]
*11 b[0]
*12 b[1]
*13 b[2]
*14 b[3]
*15 b[4]
*16 b[5]
*17 b[6]
*18 b[7]
*19 op[0]
*20 op[1]
*21 op[2]
*22 result[0]
*23 result[1]
*24 result[2]
*25 result[3]
*26 result[4]
*27 result[5]
*28 result[6]
*29 result[7]
*30 zero
*31 _000_
*32 _001_
*33 _002_
*34 _003_
*35 _004_
*36 _005_
*37 _006_
*38 _007_
*39 _008_
*40 _009_
*41 _010_
*42 _011_
*43 _012_
*44 _013_
*45 _014_
*46 _015_
*47 _016_
*48 _017_
*49 _018_
*50 _019_
*51 _020_
*52 _021_
*53 _022_
*54 _023_
*55 _024_
*56 _025_
*57 _026_
*58 _027_
*59 _028_
*60 _029_
*61 _030_
*62 _031_
*63 _032_
*64 _033_
*65 _034_
*66 _035_
*67 _036_
*68 _037_
*69 _038_
*70 _039_
*71 _040_
*72 _041_
*73 _042_
*74 _043_
*75 _044_
*76 _045_
*77 _046_
*78 _047_
*79 _048_
*80 _049_
*81 _050_
*82 _051_
*83 _052_
*84 _053_
*85 _054_
*86 _055_
*87 _056_
*88 _057_
*89 _058_
*90 _059_
*91 _060_
*92 _061_
*93 _062_
*94 _063_
*95 _064_
*96 _065_
*97 _066_
*98 _067_
*99 _068_
*100 _069_
*101 _070_
*102 _071_
*103 _072_
*104 _073_
*105 _074_
*106 _075_
*107 _076_
*108 _077_
*109 _078_
*110 _079_
*111 _080_
*112 _081_
*113 _082_
*114 _083_
*115 _084_
*116 _085_
*117 _086_
*118 _087_
*119 _088_
*120 _089_
*121 _090_
*122 _091_
*123 _092_
*124 _093_
*125 _094_
*126 _095_
*127 _096_
*128 _097_
*129 _098_
*130 _099_
*131 _100_
*132 _101_
*133 _102_
*134 _103_
*135 _104_
*136 _105_
*137 _106_
*138 _107_
*139 _108_
*140 _109_
*141 _110_
*142 _111_
*143 _112_
*144 _113_
*145 _114_
*146 net1
*147 net10
*148 net11
*149 net12
*150 net13
*151 net14
*152 net15
*153 net16
*154 net17
*155 net18
*156 net19
*157 net2
*158 net20
*159 net21
*160 net22
*161 net23
*162 net24
*163 net25
*164 net26
*165 net27
*166 net28
*167 net29
*168 net3
*169 net30
*170 net4
*171 net5
*172 net6
*173 net7
*174 net8
*175 net9
*176 FILLER_0_0_16
*177 FILLER_0_0_29
*178 FILLER_0_0_35
*179 FILLER_0_0_45
*180 FILLER_0_0_53
*181 FILLER_0_0_63
*182 FILLER_0_0_71
*183 FILLER_0_0_83
*184 FILLER_0_0_85
*185 FILLER_0_0_93
*186 FILLER_0_0_98
*187 FILLER_0_10_100
*188 FILLER_0_10_106
*189 FILLER_0_10_17
*190 FILLER_0_10_22
*191 FILLER_0_10_27
*192 FILLER_0_10_29
*193 FILLER_0_10_33
*194 FILLER_0_10_52
*195 FILLER_0_10_56
*196 FILLER_0_10_64
*197 FILLER_0_10_9
*198 FILLER_0_11_106
*199 FILLER_0_11_14
*200 FILLER_0_11_26
*201 FILLER_0_11_3
*202 FILLER_0_11_38
*203 FILLER_0_11_50
*204 FILLER_0_11_7
*205 FILLER_0_11_75
*206 FILLER_0_11_91
*207 FILLER_0_12_10
*208 FILLER_0_12_22
*209 FILLER_0_12_29
*210 FILLER_0_12_41
*211 FILLER_0_12_53
*212 FILLER_0_12_65
*213 FILLER_0_12_78
*214 FILLER_0_12_96
*215 FILLER_0_13_100
*216 FILLER_0_13_106
*217 FILLER_0_13_17
*218 FILLER_0_13_34
*219 FILLER_0_13_46
*220 FILLER_0_13_54
*221 FILLER_0_13_64
*222 FILLER_0_13_76
*223 FILLER_0_13_88
*224 FILLER_0_13_9
*225 FILLER_0_14_10
*226 FILLER_0_14_103
*227 FILLER_0_14_27
*228 FILLER_0_14_39
*229 FILLER_0_14_43
*230 FILLER_0_14_48
*231 FILLER_0_14_56
*232 FILLER_0_14_64
*233 FILLER_0_14_76
*234 FILLER_0_14_85
*235 FILLER_0_14_91
*236 FILLER_0_15_20
*237 FILLER_0_15_24
*238 FILLER_0_15_3
*239 FILLER_0_15_33
*240 FILLER_0_15_39
*241 FILLER_0_15_76
*242 FILLER_0_15_99
*243 FILLER_0_16_21
*244 FILLER_0_16_27
*245 FILLER_0_16_29
*246 FILLER_0_16_33
*247 FILLER_0_16_37
*248 FILLER_0_16_45
*249 FILLER_0_16_57
*250 FILLER_0_16_63
*251 FILLER_0_16_83
*252 FILLER_0_16_85
*253 FILLER_0_16_9
*254 FILLER_0_16_97
*255 FILLER_0_17_105
*256 FILLER_0_17_21
*257 FILLER_0_17_27
*258 FILLER_0_17_29
*259 FILLER_0_17_37
*260 FILLER_0_17_42
*261 FILLER_0_17_54
*262 FILLER_0_17_57
*263 FILLER_0_17_65
*264 FILLER_0_17_7
*265 FILLER_0_17_77
*266 FILLER_0_17_85
*267 FILLER_0_17_93
*268 FILLER_0_1_100
*269 FILLER_0_1_15
*270 FILLER_0_1_27
*271 FILLER_0_1_3
*272 FILLER_0_1_51
*273 FILLER_0_1_55
*274 FILLER_0_1_61
*275 FILLER_0_1_69
*276 FILLER_0_1_94
*277 FILLER_0_2_101
*278 FILLER_0_2_19
*279 FILLER_0_2_27
*280 FILLER_0_2_29
*281 FILLER_0_2_41
*282 FILLER_0_2_69
*283 FILLER_0_2_7
*284 FILLER_0_2_75
*285 FILLER_0_2_79
*286 FILLER_0_2_83
*287 FILLER_0_2_93
*288 FILLER_0_3_106
*289 FILLER_0_3_15
*290 FILLER_0_3_19
*291 FILLER_0_3_28
*292 FILLER_0_3_3
*293 FILLER_0_3_38
*294 FILLER_0_3_43
*295 FILLER_0_3_53
*296 FILLER_0_3_61
*297 FILLER_0_3_73
*298 FILLER_0_3_85
*299 FILLER_0_4_103
*300 FILLER_0_4_15
*301 FILLER_0_4_21
*302 FILLER_0_4_25
*303 FILLER_0_4_3
*304 FILLER_0_4_35
*305 FILLER_0_4_47
*306 FILLER_0_4_59
*307 FILLER_0_4_78
*308 FILLER_0_5_101
*309 FILLER_0_5_11
*310 FILLER_0_5_19
*311 FILLER_0_5_3
*312 FILLER_0_5_37
*313 FILLER_0_5_46
*314 FILLER_0_5_54
*315 FILLER_0_5_65
*316 FILLER_0_5_77
*317 FILLER_0_5_85
*318 FILLER_0_5_89
*319 FILLER_0_6_101
*320 FILLER_0_6_23
*321 FILLER_0_6_27
*322 FILLER_0_6_29
*323 FILLER_0_6_3
*324 FILLER_0_6_33
*325 FILLER_0_6_53
*326 FILLER_0_6_61
*327 FILLER_0_6_72
*328 FILLER_0_6_85
*329 FILLER_0_6_93
*330 FILLER_0_7_106
*331 FILLER_0_7_19
*332 FILLER_0_7_31
*333 FILLER_0_7_37
*334 FILLER_0_7_51
*335 FILLER_0_7_55
*336 FILLER_0_7_7
*337 FILLER_0_7_73
*338 FILLER_0_7_79
*339 FILLER_0_8_100
*340 FILLER_0_8_106
*341 FILLER_0_8_11
*342 FILLER_0_8_20
*343 FILLER_0_8_29
*344 FILLER_0_8_3
*345 FILLER_0_8_37
*346 FILLER_0_8_48
*347 FILLER_0_8_56
*348 FILLER_0_8_70
*349 FILLER_0_8_81
*350 FILLER_0_8_92
*351 FILLER_0_8_96
*352 FILLER_0_9_17
*353 FILLER_0_9_3
*354 FILLER_0_9_31
*355 FILLER_0_9_37
*356 FILLER_0_9_44
*357 FILLER_0_9_57
*358 FILLER_0_9_69
*359 FILLER_0_9_77
*360 FILLER_0_9_85
*361 FILLER_0_9_9
*362 FILLER_0_9_97
*363 PHY_0
*364 PHY_1
*365 PHY_10
*366 PHY_11
*367 PHY_12
*368 PHY_13
*369 PHY_14
*370 PHY_15
*371 PHY_16
*372 PHY_17
*373 PHY_18
*374 PHY_19
*375 PHY_2
*376 PHY_20
*377 PHY_21
*378 PHY_22
*379 PHY_23
*380 PHY_24
*381 PHY_25
*382 PHY_26
*383 PHY_27
*384 PHY_28
*385 PHY_29
*386 PHY_3
*387 PHY_30
*388 PHY_31
*389 PHY_32
*390 PHY_33
*391 PHY_34
*392 PHY_35
*393 PHY_4
*394 PHY_5
*395 PHY_6
*396 PHY_7
*397 PHY_8
*398 PHY_9
*399 TAP_36
*400 TAP_37
*401 TAP_38
*402 TAP_39
*403 TAP_40
*404 TAP_41
*405 TAP_42
*406 TAP_43
*407 TAP_44
*408 TAP_45
*409 TAP_46
*410 TAP_47
*411 TAP_48
*412 TAP_49
*413 TAP_50
*414 TAP_51
*415 TAP_52
*416 TAP_53
*417 TAP_54
*418 TAP_55
*419 TAP_56
*420 TAP_57
*421 TAP_58
*422 TAP_59
*423 TAP_60
*424 TAP_61
*425 TAP_62
*426 TAP_63
*427 TAP_64
*428 TAP_65
*429 _115_
*430 _116_
*431 _117_
*432 _118_
*433 _119_
*434 _120_
*435 _121_
*436 _122_
*437 _123_
*438 _124_
*439 _125_
*440 _126_
*441 _127_
*442 _128_
*443 _129_
*444 _130_
*445 _131_
*446 _132_
*447 _133_
*448 _134_
*449 _135_
*450 _136_
*451 _137_
*452 _138_
*453 _139_
*454 _140_
*455 _141_
*456 _142_
*457 _143_
*458 _144_
*459 _145_
*460 _146_
*461 _147_
*462 _148_
*463 _149_
*464 _150_
*465 _151_
*466 _152_
*467 _153_
*468 _154_
*469 _155_
*470 _156_
*471 _157_
*472 _158_
*473 _159_
*474 _160_
*475 _161_
*476 _162_
*477 _163_
*478 _164_
*479 _165_
*480 _166_
*481 _167_
*482 _168_
*483 _169_
*484 _170_
*485 _171_
*486 _172_
*487 _173_
*488 _174_
*489 _175_
*490 _176_
*491 _177_
*492 _178_
*493 _179_
*494 _180_
*495 _181_
*496 _182_
*497 _183_
*498 _184_
*499 _185_
*500 _186_
*501 _187_
*502 _188_
*503 _189_
*504 _190_
*505 _191_
*506 _192_
*507 _193_
*508 _194_
*509 _195_
*510 _196_
*511 _197_
*512 _198_
*513 _199_
*514 _200_
*515 _201_
*516 _202_
*517 _203_
*518 _204_
*519 _205_
*520 _206_
*521 _207_
*522 _208_
*523 _209_
*524 _210_
*525 _211_
*526 _212_
*527 _213_
*528 _214_
*529 _215_
*530 _216_
*531 _217_
*532 _218_
*533 _219_
*534 _220_
*535 _221_
*536 _222_
*537 _223_
*538 _224_
*539 _225_
*540 _226_
*541 _227_
*542 _228_
*543 _229_
*544 _230_
*545 _231_
*546 _232_
*547 _233_
*548 _234_
*549 _235_
*550 _236_
*551 _237_
*552 _238_
*553 input1
*554 input10
*555 input11
*556 input12
*557 input13
*558 input14
*559 input15
*560 input16
*561 input17
*562 input18
*563 input19
*564 input2
*565 input3
*566 input4
*567 input5
*568 input6
*569 input7
*570 input8
*571 input9
*572 max_cap30
*573 output20
*574 output21
*575 output22
*576 output23
*577 output24
*578 output25
*579 output26
*580 output27
*581 output28
*582 wire29

*PORTS
a[0] I
a[1] I
a[2] I
a[3] I
a[4] I
a[5] I
a[6] I
a[7] I
b[0] I
b[1] I
b[2] I
b[3] I
b[4] I
b[5] I
b[6] I
b[7] I
op[0] I
op[1] I
op[2] I
result[0] O
result[1] O
result[2] O
result[3] O
result[4] O
result[5] O
result[6] O
result[7] O
zero O

*D_NET *3 0.00112538
*CONN
*P a[0] I
*I *553:A I *D sky130_fd_sc_hd__clkbuf_2
*CAP
1 a[0] 0.000426501
2 *553:A 0
3 *3:13 0.000426501
4 *3:13 *18:9 0.000272383
*RES
1 a[0] *3:13 31.231 
2 *3:13 *553:A 23 
*END

*D_NET *4 0.00224007
*CONN
*P a[1] I
*I *564:A I *D sky130_fd_sc_hd__clkbuf_2
*CAP
1 a[1] 0.00112003
2 *564:A 0
3 *4:9 0.00112003
*RES
1 a[1] *4:9 38.8629 
2 *4:9 *564:A 23 
*END

*D_NET *5 0.0011716
*CONN
*P a[2] I
*I *565:A I *D sky130_fd_sc_hd__buf_2
*CAP
1 a[2] 0.000545632
2 *565:A 0
3 *5:15 0.000545632
4 *5:15 *16:9 7.59794e-05
5 *5:15 *29:8 4.35681e-06
*RES
1 a[2] *5:15 30.2665 
2 *5:15 *565:A 23 
*END

*D_NET *6 0.000504257
*CONN
*P a[3] I
*I *566:A I *D sky130_fd_sc_hd__buf_2
*CAP
1 a[3] 0.000252128
2 *566:A 0.000252128
*RES
1 a[3] *566:A 49.1767 
*END

*D_NET *7 0.00106727
*CONN
*P a[4] I
*I *567:A I *D sky130_fd_sc_hd__clkbuf_2
*CAP
1 a[4] 0.000533637
2 *567:A 0.000533637
*RES
1 a[4] *567:A 49.8486 
*END

*D_NET *8 0.00105522
*CONN
*P a[5] I
*I *568:A I *D sky130_fd_sc_hd__clkbuf_2
*CAP
1 a[5] 0.00052761
2 *568:A 0.00052761
*RES
1 a[5] *568:A 49.7036 
*END

*D_NET *9 0.000721163
*CONN
*P a[6] I
*I *569:A I *D sky130_fd_sc_hd__buf_2
*CAP
1 a[6] 0.000339231
2 *569:A 0
3 *9:13 0.000339231
4 *9:13 *174:10 4.27008e-05
*RES
1 a[6] *9:13 27.5469 
2 *9:13 *569:A 23 
*END

*D_NET *10 0.00123074
*CONN
*P a[7] I
*I *570:A I *D sky130_fd_sc_hd__clkbuf_2
*CAP
1 a[7] 0.000564178
2 *570:A 0
3 *10:13 0.000564178
4 *10:13 *575:A 0.000102389
5 *10:13 *24:10 0
*RES
1 a[7] *10:13 27.325 
2 *10:13 *570:A 23 
*END

*D_NET *11 0.000860826
*CONN
*P b[0] I
*I *571:A I *D sky130_fd_sc_hd__buf_2
*CAP
1 b[0] 0.000430413
2 *571:A 0.000430413
*RES
1 b[0] *571:A 47.4664 
*END

*D_NET *12 0.000498028
*CONN
*P b[1] I
*I *554:A I *D sky130_fd_sc_hd__dlymetal6s2s_1
*CAP
1 b[1] 0.000230613
2 *554:A 0.000230613
3 *554:A *147:66 1.34542e-05
4 *554:A *174:10 2.33476e-05
*RES
1 b[1] *554:A 47.0789 
*END

*D_NET *13 0.00105522
*CONN
*P b[2] I
*I *555:A I *D sky130_fd_sc_hd__clkbuf_2
*CAP
1 b[2] 0.00052761
2 *555:A 0.00052761
*RES
1 b[2] *555:A 49.7036 
*END

*D_NET *14 0.00142497
*CONN
*P b[3] I
*I *556:A I *D sky130_fd_sc_hd__clkbuf_2
*CAP
1 b[3] 0.000597181
2 *556:A 0
3 *14:15 0.000597181
4 *14:15 *17:11 0.000230604
*RES
1 b[3] *14:15 34.5069 
2 *14:15 *556:A 23 
*END

*D_NET *15 0.00101737
*CONN
*P b[4] I
*I *557:A I *D sky130_fd_sc_hd__clkbuf_2
*CAP
1 b[4] 0.000403553
2 *557:A 0
3 *15:11 0.000403553
4 *15:11 *37:12 0.000105283
5 *15:11 *53:10 0.000104978
*RES
1 b[4] *15:11 28.0384 
2 *15:11 *557:A 23 
*END

*D_NET *16 0.00149352
*CONN
*P b[5] I
*I *558:A I *D sky130_fd_sc_hd__clkbuf_2
*CAP
1 b[5] 0.000708769
2 *558:A 0
3 *16:9 0.000708769
4 *16:9 *29:8 0
5 *5:15 *16:9 7.59794e-05
*RES
1 b[5] *16:9 29.8936 
2 *16:9 *558:A 23 
*END

*D_NET *17 0.00164375
*CONN
*P b[6] I
*I *559:A I *D sky130_fd_sc_hd__clkbuf_2
*CAP
1 b[6] 0.000678052
2 *559:A 0
3 *17:11 0.000678052
4 *17:11 *563:A 0
5 *17:11 *149:8 5.70419e-05
6 *14:15 *17:11 0.000230604
*RES
1 b[6] *17:11 30.5357 
2 *17:11 *559:A 23 
*END

*D_NET *18 0.00189475
*CONN
*P b[7] I
*I *560:A I *D sky130_fd_sc_hd__clkbuf_1
*CAP
1 b[7] 0.00078283
2 *560:A 0
3 *18:9 0.00078283
4 *18:9 *146:8 5.67058e-05
5 *3:13 *18:9 0.000272383
*RES
1 b[7] *18:9 32.8971 
2 *18:9 *560:A 23 
*END

*D_NET *19 0.00085858
*CONN
*P op[0] I
*I *561:A I *D sky130_fd_sc_hd__buf_4
*CAP
1 op[0] 0.00042929
2 *561:A 0.00042929
*RES
1 op[0] *561:A 47.4664 
*END

*D_NET *20 0.00090131
*CONN
*P op[1] I
*I *562:A I *D sky130_fd_sc_hd__buf_2
*CAP
1 op[1] 0.000446234
2 *562:A 0.000446234
3 *562:A *80:14 0
4 *562:A *154:19 2.76611e-06
5 *562:A *155:25 6.07611e-06
*RES
1 op[1] *562:A 47.4664 
*END

*D_NET *21 0.000597794
*CONN
*P op[2] I
*I *563:A I *D sky130_fd_sc_hd__buf_4
*CAP
1 op[2] 0.000298897
2 *563:A 0.000298897
3 *563:A *152:8 0
4 *17:11 *563:A 0
*RES
1 op[2] *563:A 49.8426 
*END

*D_NET *22 0.00128778
*CONN
*P result[0] O
*I *573:X O *D sky130_fd_sc_hd__clkbuf_4
*CAP
1 result[0] 0.000525506
2 *573:X 0.000525506
3 result[0] *80:52 8.80821e-05
4 result[0] *146:8 0.000148688
*RES
1 *573:X result[0] 49.3514 
*END

*D_NET *23 0.000606109
*CONN
*P result[1] O
*I *574:X O *D sky130_fd_sc_hd__clkbuf_4
*CAP
1 result[1] 0.000278205
2 *574:X 0.000278205
3 result[1] *174:10 4.96982e-05
*RES
1 *574:X result[1] 47.4311 
*END

*D_NET *24 0.00118317
*CONN
*P result[2] O
*I *575:X O *D sky130_fd_sc_hd__clkbuf_4
*CAP
1 result[2] 0.000254171
2 *575:X 0.000334836
3 *24:10 0.000589007
4 *24:10 *174:8 5.1614e-06
5 *10:13 *24:10 0
*RES
1 *575:X *24:10 44.5768 
2 *24:10 result[2] 8.9296 
*END

*D_NET *25 0.00052814
*CONN
*P result[3] O
*I *576:X O *D sky130_fd_sc_hd__clkbuf_4
*CAP
1 result[3] 0.00026407
2 *576:X 0.00026407
*RES
1 *576:X result[3] 49.1767 
*END

*D_NET *26 0.00132049
*CONN
*P result[4] O
*I *577:X O *D sky130_fd_sc_hd__clkbuf_4
*CAP
1 result[4] 0.000314734
2 *577:X 0.000337503
3 *26:12 0.000652237
4 *26:12 *168:14 1.60121e-05
*RES
1 *577:X *26:12 43.6861 
2 *26:12 result[4] 7.23964 
*END

*D_NET *27 0.0010713
*CONN
*P result[5] O
*I *578:X O *D sky130_fd_sc_hd__clkbuf_4
*CAP
1 result[5] 4.5266e-05
2 *578:X 0.000488066
3 *27:16 0.000533332
4 *27:16 *175:49 4.6318e-06
*RES
1 *578:X *27:16 49.7346 
2 *27:16 result[5] 1.39821 
*END

*D_NET *28 0.00061592
*CONN
*P result[6] O
*I *579:X O *D sky130_fd_sc_hd__clkbuf_4
*CAP
1 result[6] 8.56082e-05
2 *579:X 0.000222352
3 *28:12 0.00030796
4 *28:12 *150:8 0
*RES
1 *579:X *28:12 49.9046 
2 *28:12 result[6] 0.328533 
*END

*D_NET *29 0.00177985
*CONN
*P result[7] O
*I *580:X O *D sky130_fd_sc_hd__clkbuf_4
*CAP
1 result[7] 0.000303203
2 *580:X 0.0005406
3 *29:8 0.000843802
4 *29:8 *151:8 8.78864e-05
5 *5:15 *29:8 4.35681e-06
6 *16:9 *29:8 0
*RES
1 *580:X *29:8 49.5896 
2 *29:8 result[7] 9.08267 
*END

*D_NET *30 0.000885687
*CONN
*P zero O
*I *581:X O *D sky130_fd_sc_hd__buf_6
*CAP
1 zero 0.000304354
2 *581:X 0.000304354
3 zero *147:66 0.000185803
4 zero *174:10 9.1176e-05
*RES
1 *581:X zero 49.2777 
*END

*D_NET *31 0.000948208
*CONN
*I *501:A I *D sky130_fd_sc_hd__inv_2
*I *500:Y O *D sky130_fd_sc_hd__xnor2_1
*CAP
1 *501:A 0
2 *500:Y 0.000288777
3 *31:10 0.000288777
4 *31:10 *500:A 1.24376e-05
5 *31:10 *143:6 0.000100486
6 *31:10 *171:24 0.000257731
*RES
1 *500:Y *31:10 30.3329 
2 *31:10 *501:A 23 
*END

*D_NET *32 0.00129299
*CONN
*I *504:A I *D sky130_fd_sc_hd__xnor2_1
*I *513:B1 I *D sky130_fd_sc_hd__o211ai_2
*I *501:Y O *D sky130_fd_sc_hd__inv_2
*CAP
1 *504:A 0
2 *513:B1 0
3 *501:Y 0.000188536
4 *32:14 0.000156031
5 *32:6 0.000344566
6 *32:6 *171:24 0.000322387
7 *32:14 *513:C1 3.29613e-05
8 *32:14 *34:14 0.000192871
9 *32:14 *43:8 5.56356e-05
*RES
1 *501:Y *32:6 27.4329 
2 *32:6 *32:14 33.7079 
3 *32:14 *513:B1 23 
4 *32:6 *504:A 23 
*END

*D_NET *33 0.000812847
*CONN
*I *513:A2 I *D sky130_fd_sc_hd__o211ai_2
*I *503:A2 I *D sky130_fd_sc_hd__o21ai_1
*I *502:X O *D sky130_fd_sc_hd__a21o_1
*CAP
1 *513:A2 0
2 *503:A2 0
3 *502:X 0.000146544
4 *33:14 6.95008e-05
5 *33:8 0.000216045
6 *33:8 *513:A1 3.28357e-06
7 *33:8 *126:6 2.71358e-05
8 *33:8 *129:14 1.84917e-05
9 *33:14 *35:16 0.000164171
10 *33:14 *172:10 0.000167676
*RES
1 *502:X *33:8 25.5479 
2 *33:8 *33:14 32.2579 
3 *33:14 *503:A2 23 
4 *33:8 *513:A2 23 
*END

*D_NET *34 0.00142704
*CONN
*I *504:B I *D sky130_fd_sc_hd__xnor2_1
*I *503:Y O *D sky130_fd_sc_hd__o21ai_1
*CAP
1 *504:B 0
2 *503:Y 0.000407906
3 *34:14 0.000407906
4 *34:14 *126:21 1.85903e-05
5 *34:14 *171:24 0.000271458
6 *34:14 *172:18 0.000128309
7 *32:14 *34:14 0.000192871
*RES
1 *503:Y *34:14 46.3686 
2 *34:14 *504:B 38 
*END

*D_NET *35 0.0022188
*CONN
*I *505:B1 I *D sky130_fd_sc_hd__o32a_1
*I *504:Y O *D sky130_fd_sc_hd__xnor2_1
*CAP
1 *505:B1 0
2 *504:Y 4.56851e-05
3 *35:16 0.000836502
4 *35:8 0.000882187
5 *35:16 *126:21 0.000133649
6 *35:16 *171:24 3.27399e-05
7 *35:16 *172:10 0.000123864
8 *33:14 *35:16 0.000164171
*RES
1 *504:Y *35:8 38.6214 
2 *35:8 *35:16 31.3021 
3 *35:16 *505:B1 23 
*END

*D_NET *36 0.00160533
*CONN
*I *523:A1 I *D sky130_fd_sc_hd__o21a_1
*I *510:A I *D sky130_fd_sc_hd__and2_1
*I *509:A I *D sky130_fd_sc_hd__nor2_1
*I *506:Y O *D sky130_fd_sc_hd__inv_2
*CAP
1 *523:A1 1.34103e-05
2 *510:A 0
3 *509:A 3.30586e-05
4 *506:Y 0.000392627
5 *36:10 0.000169438
6 *36:6 0.000542417
7 *509:A *38:17 0.00010018
8 *523:A1 *510:B 4.00259e-06
9 *36:6 *515:A 0.00010018
10 *36:6 *523:A2 3.22879e-05
11 *36:6 *39:10 2.65879e-05
12 *36:6 *40:32 5.29672e-05
13 *36:6 *45:8 3.66555e-05
14 *36:10 *510:B 1.14154e-05
15 *36:10 *523:A2 6.82611e-05
16 *36:10 *38:17 2.18409e-05
*RES
1 *506:Y *36:6 30.7679 
2 *36:6 *36:10 2.54786 
3 *36:10 *509:A 24.0979 
4 *36:10 *510:A 23 
5 *36:6 *523:A1 23.4971 
*END

*D_NET *37 0.00589045
*CONN
*I *508:B I *D sky130_fd_sc_hd__xor2_1
*I *542:A3 I *D sky130_fd_sc_hd__o31a_1
*I *524:B1 I *D sky130_fd_sc_hd__a21oi_1
*I *507:X O *D sky130_fd_sc_hd__a21o_1
*CAP
1 *508:B 0.000291611
2 *542:A3 0.000382084
3 *524:B1 5.65295e-05
4 *507:X 9.07431e-05
5 *37:12 0.000825998
6 *37:8 0.000769739
7 *508:B *499:A 0.000132665
8 *508:B *145:8 9.21347e-06
9 *508:B *151:8 3.70187e-05
10 *508:B *151:21 0.000568598
11 *524:B1 *151:27 3.86731e-05
12 *542:A3 *524:A2 5.66866e-05
13 *542:A3 *543:B 0.000188526
14 *542:A3 *53:10 3.86731e-05
15 *542:A3 *94:27 0.00015503
16 *542:A3 *151:27 2.2263e-05
17 *37:8 *507:A1 3.16784e-05
18 *37:12 *499:A 6.70363e-05
19 *37:12 *53:10 3.90213e-05
20 *37:12 *150:8 0.000628584
21 *37:12 *150:45 0.000194327
22 *37:12 *151:21 0.00116047
23 *15:11 *37:12 0.000105283
*RES
1 *507:X *37:8 39.0979 
2 *37:8 *37:12 30.2871 
3 *37:12 *524:B1 24.1186 
4 *37:12 *542:A3 30.6643 
5 *37:8 *508:B 45.8921 
*END

*D_NET *38 0.00106696
*CONN
*I *523:A2 I *D sky130_fd_sc_hd__o21a_1
*I *510:B I *D sky130_fd_sc_hd__and2_1
*I *509:B I *D sky130_fd_sc_hd__nor2_1
*I *508:X O *D sky130_fd_sc_hd__xor2_1
*CAP
1 *523:A2 5.41624e-05
2 *510:B 1.09231e-05
3 *509:B 0
4 *508:X 0.000139949
5 *38:17 0.000138575
6 *38:8 0.000213438
7 *523:A2 *39:10 4.5051e-05
8 *523:A2 *40:32 9.84851e-05
9 *38:17 *39:10 0.000128391
10 *509:A *38:17 0.00010018
11 *523:A1 *510:B 4.00259e-06
12 *36:6 *523:A2 3.22879e-05
13 *36:10 *510:B 1.14154e-05
14 *36:10 *523:A2 6.82611e-05
15 *36:10 *38:17 2.18409e-05
*RES
1 *508:X *38:8 25.5479 
2 *38:8 *509:B 23 
3 *38:8 *38:17 3.02429 
4 *38:17 *510:B 23.4971 
5 *38:17 *523:A2 25.0507 
*END

*D_NET *39 0.00164084
*CONN
*I *511:A I *D sky130_fd_sc_hd__or2_1
*I *509:Y O *D sky130_fd_sc_hd__nor2_1
*CAP
1 *511:A 0
2 *509:Y 0.000549924
3 *39:10 0.000549924
4 *39:10 *40:32 0.000302095
5 *39:10 *41:8 3.88725e-05
6 *523:A2 *39:10 4.5051e-05
7 *36:6 *39:10 2.65879e-05
8 *38:17 *39:10 0.000128391
*RES
1 *509:Y *39:10 47.0729 
2 *39:10 *511:A 38 
*END

*D_NET *40 0.00177806
*CONN
*I *511:B I *D sky130_fd_sc_hd__or2_1
*I *528:B1 I *D sky130_fd_sc_hd__a21o_1
*I *527:C1 I *D sky130_fd_sc_hd__a211oi_2
*I *510:X O *D sky130_fd_sc_hd__and2_1
*CAP
1 *511:B 0
2 *528:B1 0
3 *527:C1 7.8701e-05
4 *510:X 0
5 *40:32 0.000183689
6 *40:10 0.000233287
7 *40:4 0.000338275
8 *527:C1 *527:A2 0
9 *527:C1 *528:A1 1.76557e-05
10 *527:C1 *528:A2 5.67058e-05
11 *527:C1 *52:12 0
12 *527:C1 *56:10 5.50106e-05
13 *527:C1 *161:33 0.000130544
14 *40:10 *42:12 0
15 *40:10 *52:8 0
16 *40:10 *165:18 0.000122417
17 *40:32 *42:12 0.000108227
18 *40:32 *43:20 0
19 *523:A2 *40:32 9.84851e-05
20 *36:6 *40:32 5.29672e-05
21 *39:10 *40:32 0.000302095
*RES
1 *510:X *40:4 23 
2 *40:4 *40:10 33.3143 
3 *40:10 *527:C1 25.5479 
4 *40:10 *528:B1 23 
5 *40:4 *40:32 35.1371 
6 *40:32 *511:B 23 
*END

*D_NET *41 0.000517595
*CONN
*I *515:A I *D sky130_fd_sc_hd__xnor2_1
*I *511:X O *D sky130_fd_sc_hd__or2_1
*CAP
1 *515:A 6.58708e-05
2 *511:X 5.74847e-05
3 *41:8 0.000123355
4 *515:A *515:B 9.07037e-05
5 *41:8 *44:8 4.11274e-05
6 *36:6 *515:A 0.00010018
7 *39:10 *41:8 3.88725e-05
*RES
1 *511:X *41:8 39.2014 
2 *41:8 *515:A 40.2993 
*END

*D_NET *42 0.00123911
*CONN
*I *514:A I *D sky130_fd_sc_hd__nand2_1
*I *523:B1 I *D sky130_fd_sc_hd__o21a_1
*I *512:X O *D sky130_fd_sc_hd__or2_1
*CAP
1 *514:A 0.000246465
2 *523:B1 0
3 *512:X 0.000192826
4 *42:12 0.000123369
5 *42:6 0.000562661
6 *514:A *43:8 5.55743e-06
7 *42:12 *43:20 0
8 *42:12 *165:18 0
9 *40:10 *42:12 0
10 *40:32 *42:12 0.000108227
*RES
1 *512:X *42:6 25.5271 
2 *42:6 *42:12 32.2579 
3 *42:12 *523:B1 23 
4 *42:6 *514:A 27.35 
*END

*D_NET *43 0.00242972
*CONN
*I *514:B I *D sky130_fd_sc_hd__nand2_1
*I *528:A1 I *D sky130_fd_sc_hd__a21o_1
*I *527:A1 I *D sky130_fd_sc_hd__a211oi_2
*I *513:Y O *D sky130_fd_sc_hd__o211ai_2
*CAP
1 *514:B 0
2 *528:A1 0.000280507
3 *527:A1 0
4 *513:Y 0.000345368
5 *43:20 0.000674932
6 *43:8 0.000739794
7 *528:A1 *527:A2 8.38842e-05
8 *528:A1 *528:A2 8.1796e-05
9 *528:A1 *52:12 0
10 *43:20 *527:A2 5.67058e-05
11 *43:20 *44:8 8.78864e-05
12 *43:20 *52:8 0
13 *514:A *43:8 5.55743e-06
14 *527:C1 *528:A1 1.76557e-05
15 *32:14 *43:8 5.56356e-05
16 *40:32 *43:20 0
17 *42:12 *43:20 0
*RES
1 *513:Y *43:8 27.93 
2 *43:8 *43:20 37.1671 
3 *43:20 *527:A1 23 
4 *43:20 *528:A1 27.8057 
5 *43:8 *514:B 23 
*END

*D_NET *44 0.000403687
*CONN
*I *515:B I *D sky130_fd_sc_hd__xnor2_1
*I *514:Y O *D sky130_fd_sc_hd__nand2_1
*CAP
1 *515:B 4.88558e-05
2 *514:Y 4.31292e-05
3 *44:8 9.1985e-05
4 *515:A *515:B 9.07037e-05
5 *41:8 *44:8 4.11274e-05
6 *43:20 *44:8 8.78864e-05
*RES
1 *514:Y *44:8 39.2014 
2 *44:8 *515:B 39.4707 
*END

*D_NET *45 0.00293079
*CONN
*I *522:A2 I *D sky130_fd_sc_hd__o21a_1
*I *515:Y O *D sky130_fd_sc_hd__xnor2_1
*CAP
1 *522:A2 0
2 *515:Y 8.65734e-05
3 *45:14 0.000677954
4 *45:8 0.000764527
5 *45:8 *506:A 6.17437e-06
6 *45:14 *51:10 8.62876e-05
7 *45:14 *80:35 0.000185221
8 *45:14 *92:52 5.3304e-05
9 *45:14 *171:24 2.60152e-05
10 *45:14 *171:36 2.04506e-05
11 *45:14 *172:39 0.000987626
12 *36:6 *45:8 3.66555e-05
*RES
1 *515:Y *45:8 39.5743 
2 *45:8 *45:14 31.2607 
3 *45:14 *522:A2 23 
*END

*D_NET *46 0.00112301
*CONN
*I *520:A2 I *D sky130_fd_sc_hd__a311o_1
*I *518:A2_N I *D sky130_fd_sc_hd__a2bb2o_1
*I *516:Y O *D sky130_fd_sc_hd__nand2_1
*CAP
1 *520:A2 0.00015908
2 *518:A2_N 1.93089e-05
3 *516:Y 0.000109094
4 *46:6 0.000287483
5 *518:A2_N *518:A1_N 1.12796e-05
6 *518:A2_N *518:B2 3.23857e-06
7 *520:A2 *518:B1 5.56279e-05
8 *520:A2 *518:B2 2.46906e-05
9 *520:A2 *520:A3 9.66668e-05
10 *520:A2 *48:10 7.87243e-05
11 *520:A2 *50:10 3.22051e-05
12 *520:A2 *105:14 5.49984e-05
13 *46:6 *516:A 0.000100061
14 *46:6 *48:10 7.46417e-05
15 *46:6 *105:14 1.59094e-05
*RES
1 *516:Y *46:6 25.5271 
2 *46:6 *518:A2_N 23.4971 
3 *46:6 *520:A2 27.4536 
*END

*D_NET *47 0.000706324
*CONN
*I *520:A3 I *D sky130_fd_sc_hd__a311o_1
*I *518:B1 I *D sky130_fd_sc_hd__a2bb2o_1
*I *517:X O *D sky130_fd_sc_hd__or2_1
*CAP
1 *520:A3 3.23262e-05
2 *518:B1 1.56031e-05
3 *517:X 0.000102325
4 *47:10 4.79293e-05
5 *47:8 0.000102325
6 *518:B1 *518:B2 5.56279e-05
7 *520:A3 *518:B2 4.08664e-05
8 *520:A3 *105:14 2.33782e-05
9 *47:8 *87:27 0.000109343
10 *47:8 *87:44 2.4306e-05
11 *520:A2 *518:B1 5.56279e-05
12 *520:A2 *520:A3 9.66668e-05
*RES
1 *517:X *47:8 39.9057 
2 *47:8 *47:10 15 
3 *47:10 *518:B1 23.6214 
4 *47:10 *520:A3 24.0979 
*END

*D_NET *48 0.000996264
*CONN
*I *521:B1 I *D sky130_fd_sc_hd__a211o_1
*I *518:X O *D sky130_fd_sc_hd__a2bb2o_1
*CAP
1 *521:B1 0
2 *518:X 0.000328896
3 *48:10 0.000328896
4 *48:10 *50:10 0.000161067
5 *48:10 *109:31 2.40392e-05
6 *520:A2 *48:10 7.87243e-05
7 *46:6 *48:10 7.46417e-05
*RES
1 *518:X *48:10 43.2614 
2 *48:10 *521:B1 38 
*END

*D_NET *49 0.00100577
*CONN
*I *520:B1 I *D sky130_fd_sc_hd__a311o_1
*I *519:X O *D sky130_fd_sc_hd__a2bb2o_1
*CAP
1 *520:B1 0
2 *519:X 0.000330904
3 *49:10 0.000330904
4 *49:10 *83:10 0.000134776
5 *49:10 *84:16 0.000182219
6 *49:10 *172:61 2.69681e-05
*RES
1 *519:X *49:10 42.9093 
2 *49:10 *520:B1 38 
*END

*D_NET *50 0.000560501
*CONN
*I *521:C1 I *D sky130_fd_sc_hd__a211o_1
*I *520:X O *D sky130_fd_sc_hd__a311o_1
*CAP
1 *521:C1 0
2 *520:X 0.000123944
3 *50:10 0.000123944
4 *50:10 *87:44 3.11916e-05
5 *50:10 *89:33 8.81493e-05
6 *520:A2 *50:10 3.22051e-05
7 *48:10 *50:10 0.000161067
*RES
1 *520:X *50:10 40.8793 
2 *50:10 *521:C1 38 
*END

*D_NET *51 0.00132245
*CONN
*I *522:B1 I *D sky130_fd_sc_hd__o21a_1
*I *521:X O *D sky130_fd_sc_hd__a211o_1
*CAP
1 *522:B1 3.3418e-05
2 *521:X 0.000244792
3 *51:10 0.00027821
4 *522:B1 *522:A1 9.65021e-05
5 *522:B1 *165:33 9.65021e-05
6 *51:10 *549:B1 0
7 *51:10 *109:43 0.000137682
8 *51:10 *141:10 0.000134776
9 *51:10 *172:39 0.000214281
10 *45:14 *51:10 8.62876e-05
*RES
1 *521:X *51:10 43.6964 
2 *51:10 *522:B1 39.0979 
*END

*D_NET *52 0.000987496
*CONN
*I *527:A2 I *D sky130_fd_sc_hd__a211oi_2
*I *528:A2 I *D sky130_fd_sc_hd__a21o_1
*I *523:X O *D sky130_fd_sc_hd__o21a_1
*CAP
1 *527:A2 9.75898e-05
2 *528:A2 3.0747e-05
3 *523:X 0.000102271
4 *52:12 0.000149332
5 *52:8 0.000123266
6 *527:A2 *161:33 0.000166349
7 *528:A2 *56:10 2.4754e-05
8 *528:A2 *161:33 1.40958e-05
9 *527:C1 *527:A2 0
10 *527:C1 *528:A2 5.67058e-05
11 *527:C1 *52:12 0
12 *528:A1 *527:A2 8.38842e-05
13 *528:A1 *528:A2 8.1796e-05
14 *528:A1 *52:12 0
15 *40:10 *52:8 0
16 *43:20 *527:A2 5.67058e-05
17 *43:20 *52:8 0
*RES
1 *523:X *52:8 39.5536 
2 *52:8 *52:12 15.4971 
3 *52:12 *528:A2 24.5743 
4 *52:12 *527:A2 27.1221 
*END

*D_NET *53 0.000581498
*CONN
*I *525:B I *D sky130_fd_sc_hd__xnor2_1
*I *524:Y O *D sky130_fd_sc_hd__a21oi_1
*CAP
1 *525:B 0
2 *524:Y 0.000199413
3 *53:10 0.000199413
4 *542:A3 *53:10 3.86731e-05
5 *15:11 *53:10 0.000104978
6 *37:12 *53:10 3.90213e-05
*RES
1 *524:Y *53:10 42.1636 
2 *53:10 *525:B 38 
*END

*D_NET *54 0.00167043
*CONN
*I *526:B I *D sky130_fd_sc_hd__xor2_1
*I *538:A_N I *D sky130_fd_sc_hd__and2b_1
*I *525:Y O *D sky130_fd_sc_hd__xnor2_1
*CAP
1 *526:B 0.000134366
2 *538:A_N 0.000138259
3 *525:Y 0.000267501
4 *54:8 0.000540127
5 *526:B *94:40 2.57899e-05
6 *526:B *151:21 8.28987e-05
7 *526:B *173:78 8.51329e-05
8 *538:A_N *173:78 3.06803e-05
9 *54:8 *69:12 0.000136905
10 *54:8 *94:40 0.000111625
11 *54:8 *151:21 0.000117143
*RES
1 *525:Y *54:8 45.1879 
2 *54:8 *538:A_N 40.0507 
3 *54:8 *526:B 41.9357 
*END

*D_NET *55 0.00294858
*CONN
*I *527:B1 I *D sky130_fd_sc_hd__a211oi_2
*I *529:A1 I *D sky130_fd_sc_hd__a21o_1
*I *526:X O *D sky130_fd_sc_hd__xor2_1
*CAP
1 *527:B1 0
2 *529:A1 0
3 *526:X 0.000429216
4 *55:29 0.000456656
5 *55:16 0.000456656
6 *55:14 0.000429216
7 *55:14 *544:B1 0
8 *55:14 *545:A3 0.000185428
9 *55:14 *56:10 0.000107538
10 *55:14 *56:12 3.72639e-05
11 *55:14 *66:14 0.00024275
12 *55:14 *71:8 0
13 *55:14 *165:18 0.000453325
14 *55:29 *529:B1 1.59094e-05
15 *55:29 *56:10 9.74832e-05
16 *55:29 *79:43 3.71369e-05
17 *55:29 *165:18 0
*RES
1 *526:X *55:14 48.3571 
2 *55:14 *55:16 15 
3 *55:16 *529:A1 23 
4 *55:16 *55:29 37.25 
5 *55:29 *527:B1 23 
*END

*D_NET *56 0.0023548
*CONN
*I *544:A2 I *D sky130_fd_sc_hd__o21ai_1
*I *537:A1 I *D sky130_fd_sc_hd__o21ai_1
*I *545:A2 I *D sky130_fd_sc_hd__o31a_1
*I *527:Y O *D sky130_fd_sc_hd__a211oi_2
*CAP
1 *544:A2 0.00011508
2 *537:A1 0
3 *545:A2 7.964e-05
4 *527:Y 0.000315438
5 *56:12 0.0001145
6 *56:10 0.000465378
7 *544:A2 *150:14 0.000137651
8 *545:A2 *66:14 0.000187986
9 *545:A2 *79:60 0.000190227
10 *56:10 *79:60 0.000139647
11 *56:10 *161:33 9.84851e-05
12 *56:10 *165:18 9.9284e-05
13 *56:12 *79:60 8.94394e-05
14 *527:C1 *56:10 5.50106e-05
15 *528:A2 *56:10 2.4754e-05
16 *55:14 *56:10 0.000107538
17 *55:14 *56:12 3.72639e-05
18 *55:29 *56:10 9.74832e-05
*RES
1 *527:Y *56:10 46.2857 
2 *56:10 *56:12 1.20143 
3 *56:12 *545:A2 40.61 
4 *56:12 *537:A1 38 
5 *56:10 *544:A2 39.5743 
*END

*D_NET *57 0.000742213
*CONN
*I *529:A2 I *D sky130_fd_sc_hd__a21o_1
*I *528:X O *D sky130_fd_sc_hd__a21o_1
*CAP
1 *529:A2 0.000108213
2 *528:X 0.000189203
3 *57:8 0.000297416
4 *529:A2 *507:A1 0
5 *529:A2 *529:B1 0
6 *57:8 *94:55 0
7 *57:8 *144:29 0
8 *57:8 *145:8 0
9 *57:8 *165:18 0.00014738
*RES
1 *528:X *57:8 42.0186 
2 *57:8 *529:A2 39.9471 
*END

*D_NET *58 0.000351779
*CONN
*I *537:A2 I *D sky130_fd_sc_hd__o21ai_1
*I *529:X O *D sky130_fd_sc_hd__a21o_1
*CAP
1 *537:A2 4.57773e-05
2 *529:X 5.94633e-05
3 *58:8 0.000105241
4 *537:A2 *150:14 5.50106e-05
5 *58:8 *79:60 8.62876e-05
*RES
1 *529:X *58:8 39.2014 
2 *58:8 *537:A2 38.6214 
*END

*D_NET *59 0.000692316
*CONN
*I *532:B I *D sky130_fd_sc_hd__and3_1
*I *530:Y O *D sky130_fd_sc_hd__nand2_1
*CAP
1 *532:B 4.22538e-05
2 *530:Y 0.000100105
3 *59:8 0.000142359
4 *532:B *100:8 2.93845e-05
5 *59:8 *531:A 0.000214852
6 *59:8 *100:10 0.000163361
*RES
1 *530:Y *59:8 40.9621 
2 *59:8 *532:B 38.6214 
*END

*D_NET *60 0.00157474
*CONN
*I *532:C I *D sky130_fd_sc_hd__and3_1
*I *534:B2 I *D sky130_fd_sc_hd__a22o_1
*I *531:X O *D sky130_fd_sc_hd__or2_1
*CAP
1 *532:C 0.000159495
2 *534:B2 0.000124917
3 *531:X 0.000205997
4 *60:10 0.000490409
5 *532:C *61:10 9.64943e-05
6 *532:C *152:19 2.72789e-05
7 *532:C *174:22 0.000206125
8 *534:B2 *451:A 0.000100069
9 *534:B2 *451:B_N 2.95757e-05
10 *534:B2 *534:B1 2.02517e-05
11 *534:B2 *174:22 4.76953e-05
12 *60:10 *531:A 4.84129e-06
13 *60:10 *152:19 6.15872e-05
*RES
1 *531:X *60:10 41.0036 
2 *60:10 *534:B2 41.3971 
3 *60:10 *532:C 41.2107 
*END

*D_NET *61 0.000769545
*CONN
*I *533:B1 I *D sky130_fd_sc_hd__a31o_1
*I *532:X O *D sky130_fd_sc_hd__and3_1
*CAP
1 *533:B1 1.56031e-05
2 *532:X 0.000198049
3 *61:10 0.000213652
4 *533:B1 *152:28 5.56279e-05
5 *533:B1 *173:31 5.56279e-05
6 *61:10 *152:19 0.00013449
7 *532:C *61:10 9.64943e-05
*RES
1 *532:X *61:10 41.0036 
2 *61:10 *533:B1 38.6214 
*END

*D_NET *62 0.00232582
*CONN
*I *536:B1 I *D sky130_fd_sc_hd__a2111oi_1
*I *533:X O *D sky130_fd_sc_hd__a31o_1
*CAP
1 *536:B1 0.000651997
2 *533:X 0.000174867
3 *62:10 0.000826864
4 *536:B1 *533:A3 1.46286e-05
5 *536:B1 *536:C1 0.000457438
6 *536:B1 *536:D1 0.000140259
7 *536:B1 *89:56 1.46594e-05
8 *62:10 *461:A1_N 2.93335e-05
9 *62:10 *533:A3 1.5769e-05
*RES
1 *533:X *62:10 40.1957 
2 *62:10 *536:B1 48.3364 
*END

*D_NET *63 0.00229435
*CONN
*I *536:C1 I *D sky130_fd_sc_hd__a2111oi_1
*I *534:X O *D sky130_fd_sc_hd__a22o_1
*CAP
1 *536:C1 0.00024374
2 *534:X 0.000187421
3 *63:8 0.000431161
4 *536:C1 *533:A3 0.000242279
5 *536:C1 *535:A 5.50106e-05
6 *536:C1 *536:D1 0.000140259
7 *536:C1 *89:56 0.000181125
8 *536:C1 *173:37 7.55481e-05
9 *63:8 *435:B2 0
10 *63:8 *89:106 2.26497e-05
11 *63:8 *157:75 0
12 *63:8 *158:33 0.000257724
13 *536:B1 *536:C1 0.000457438
*RES
1 *534:X *63:8 41.6664 
2 *63:8 *536:C1 46.2443 
*END

*D_NET *64 0.000347689
*CONN
*I *536:D1 I *D sky130_fd_sc_hd__a2111oi_1
*I *535:Y O *D sky130_fd_sc_hd__nor2_1
*CAP
1 *536:D1 3.3586e-05
2 *535:Y 3.3586e-05
3 *536:B1 *536:D1 0.000140259
4 *536:C1 *536:D1 0.000140259
*RES
1 *535:Y *536:D1 47.5743 
*END

*D_NET *65 0.00375436
*CONN
*I *582:A I *D sky130_fd_sc_hd__clkbuf_1
*I *536:Y O *D sky130_fd_sc_hd__a2111oi_1
*CAP
1 *582:A 0
2 *536:Y 0.000256299
3 *65:18 0.000886974
4 *65:8 0.00114327
5 *65:8 *536:A2 9.84851e-05
6 *65:8 *89:56 4.21281e-05
7 *65:8 *172:76 6.53382e-05
8 *65:18 *487:A1 0.000157147
9 *65:18 *488:B2 0.000362518
10 *65:18 *521:A1 7.97439e-06
11 *65:18 *87:14 0
12 *65:18 *89:135 5.58003e-05
13 *65:18 *102:31 4.73379e-05
14 *65:18 *109:57 3.32832e-05
15 *65:18 *133:25 0.000212487
16 *65:18 *135:10 5.5792e-05
17 *65:18 *169:10 0.000140326
18 *65:18 *169:57 0.000107672
19 *65:18 *170:45 8.15258e-05
20 *65:18 *172:76 0
*RES
1 *536:Y *65:8 41.48 
2 *65:8 *65:18 32.9386 
3 *65:18 *582:A 23 
*END

*D_NET *66 0.00202692
*CONN
*I *545:A1 I *D sky130_fd_sc_hd__o31a_1
*I *544:A1 I *D sky130_fd_sc_hd__o21ai_1
*I *538:X O *D sky130_fd_sc_hd__and2b_1
*CAP
1 *545:A1 0
2 *544:A1 0
3 *538:X 0.0001183
4 *66:29 0.000243368
5 *66:14 0.000210336
6 *66:6 0.000572003
7 *66:14 *579:A 5.3304e-05
8 *66:14 *71:8 0
9 *66:14 *79:60 7.20518e-05
10 *66:14 *150:14 2.64616e-05
11 *66:29 *549:B1 0
12 *66:29 *79:60 0.000164282
13 *66:29 *80:35 6.6869e-05
14 *66:29 *92:52 1.59094e-05
15 *66:29 *165:18 5.3304e-05
16 *545:A2 *66:14 0.000187986
17 *55:14 *66:14 0.00024275
*RES
1 *538:X *66:6 24.5743 
2 *66:6 *66:14 35.3443 
3 *66:14 *544:A1 23 
4 *66:6 *66:29 34.4536 
5 *66:29 *545:A1 23 
*END

*D_NET *67 0.00188017
*CONN
*I *546:B1 I *D sky130_fd_sc_hd__a22oi_1
*I *541:A I *D sky130_fd_sc_hd__nand2_1
*I *539:X O *D sky130_fd_sc_hd__or2_1
*CAP
1 *546:B1 0.000186637
2 *541:A 4.95828e-05
3 *539:X 0.000150819
4 *67:12 0.000236219
5 *67:10 0.000150819
6 *541:A *541:B 5.50049e-05
7 *541:A *546:A1 4.95081e-05
8 *541:A *152:59 0.000145956
9 *546:B1 *541:B 0.000122599
10 *546:B1 *546:A1 5.35848e-05
11 *546:B1 *546:A2 1.46586e-05
12 *546:B1 *546:B2 3.85196e-05
13 *546:B1 *109:18 6.41207e-05
14 *546:B1 *152:59 0.000344314
15 *67:10 *540:B 5.67058e-05
16 *67:10 *546:A1 0
17 *67:10 *80:14 0.000161121
18 *67:10 *152:59 0
*RES
1 *539:X *67:10 40.8793 
2 *67:10 *67:12 15 
3 *67:12 *541:A 25.0714 
4 *67:12 *546:B1 28.4271 
*END

*D_NET *68 0.00225996
*CONN
*I *547:B1 I *D sky130_fd_sc_hd__o221a_1
*I *541:B I *D sky130_fd_sc_hd__nand2_1
*I *540:Y O *D sky130_fd_sc_hd__nand2_1
*CAP
1 *547:B1 0.000286412
2 *541:B 6.85292e-05
3 *540:Y 0.000111801
4 *68:10 0.000466742
5 *541:B *546:A1 0.000177604
6 *547:B1 *548:B1 1.35999e-05
7 *547:B1 *76:8 7.1556e-05
8 *547:B1 *80:14 1.39826e-05
9 *547:B1 *94:10 0.000211701
10 *547:B1 *105:24 3.22051e-05
11 *547:B1 *151:48 6.11945e-05
12 *547:B1 *173:53 2.37393e-05
13 *547:B1 *174:46 0.000240928
14 *68:10 *94:10 0.000136486
15 *68:10 *174:36 2.93845e-05
16 *68:10 *174:46 0.000136486
17 *541:A *541:B 5.50049e-05
18 *546:B1 *541:B 0.000122599
*RES
1 *540:Y *68:10 40.5271 
2 *68:10 *541:B 40.0507 
3 *68:10 *547:B1 45.6021 
*END

*D_NET *69 0.00200759
*CONN
*I *548:A2 I *D sky130_fd_sc_hd__o211a_1
*I *543:A I *D sky130_fd_sc_hd__xnor2_1
*I *541:Y O *D sky130_fd_sc_hd__nand2_1
*CAP
1 *548:A2 0
2 *543:A 0
3 *541:Y 0
4 *69:23 0.0001262
5 *69:12 0.000650818
6 *69:4 0.000777017
7 *69:12 *546:A1 2.65879e-05
8 *69:12 *94:40 1.74126e-05
9 *69:12 *152:59 0.000185434
10 *69:23 *79:60 6.43792e-05
11 *69:23 *80:14 2.28401e-05
12 *54:8 *69:12 0.000136905
*RES
1 *541:Y *69:4 23 
2 *69:4 *69:12 40.585 
3 *69:12 *543:A 23 
4 *69:4 *69:23 32.2579 
5 *69:23 *548:A2 23 
*END

*D_NET *70 0.000392287
*CONN
*I *543:B I *D sky130_fd_sc_hd__xnor2_1
*I *542:X O *D sky130_fd_sc_hd__o31a_1
*CAP
1 *543:B 4.73215e-05
2 *542:X 4.73215e-05
3 *543:B *524:A2 2.95423e-05
4 *543:B *94:27 7.95762e-05
5 *542:A3 *543:B 0.000188526
*RES
1 *542:X *543:B 48.0507 
*END

*D_NET *71 0.00264079
*CONN
*I *544:B1 I *D sky130_fd_sc_hd__o21ai_1
*I *545:A3 I *D sky130_fd_sc_hd__o31a_1
*I *543:Y O *D sky130_fd_sc_hd__xnor2_1
*CAP
1 *544:B1 0.00018845
2 *545:A3 0.000171591
3 *543:Y 0.000226344
4 *71:8 0.000586386
5 *544:B1 *579:A 0.000103647
6 *544:B1 *72:8 0
7 *544:B1 *94:40 0.000240695
8 *544:B1 *150:14 0.000187129
9 *544:B1 *165:18 0
10 *545:A3 *549:A1 2.47702e-05
11 *545:A3 *92:52 5.50049e-05
12 *545:A3 *165:18 1.41077e-05
13 *71:8 *79:60 0
14 *71:8 *94:40 0.000539647
15 *71:8 *173:70 0.000117592
16 *55:14 *544:B1 0
17 *55:14 *545:A3 0.000185428
18 *55:14 *71:8 0
19 *66:14 *71:8 0
*RES
1 *543:Y *71:8 45.1879 
2 *71:8 *545:A3 41.9564 
3 *71:8 *544:B1 43.8621 
*END

*D_NET *72 0.00124175
*CONN
*I *549:A1 I *D sky130_fd_sc_hd__a21oi_1
*I *544:Y O *D sky130_fd_sc_hd__o21ai_1
*CAP
1 *549:A1 0.000345047
2 *544:Y 6.19464e-05
3 *72:8 0.000406993
4 *549:A1 *165:18 0.0003489
5 *549:A1 *165:33 1.32314e-05
6 *72:8 *165:18 4.08641e-05
7 *544:B1 *72:8 0
8 *545:A3 *549:A1 2.47702e-05
*RES
1 *544:Y *72:8 39.2014 
2 *72:8 *549:A1 42.9093 
*END

*D_NET *73 0.000107502
*CONN
*I *549:A2 I *D sky130_fd_sc_hd__a21oi_1
*I *545:X O *D sky130_fd_sc_hd__o31a_1
*CAP
1 *549:A2 1.56637e-05
2 *545:X 1.56637e-05
3 *549:A2 *92:52 1.94693e-05
4 *549:A2 *165:18 5.67058e-05
*RES
1 *545:X *549:A2 46.6214 
*END

*D_NET *74 0.00098393
*CONN
*I *547:C1 I *D sky130_fd_sc_hd__o221a_1
*I *546:Y O *D sky130_fd_sc_hd__a22oi_1
*CAP
1 *547:C1 2.31688e-05
2 *546:Y 0.000244467
3 *74:10 0.000267636
4 *547:C1 *105:24 0.000100061
5 *547:C1 *151:48 8.03185e-05
6 *74:10 *105:24 1.0092e-05
7 *74:10 *109:31 6.75596e-05
8 *74:10 *152:59 0.000190627
*RES
1 *546:Y *74:10 42.3086 
2 *74:10 *547:C1 39.0979 
*END

*D_NET *75 0.000598789
*CONN
*I *548:B1 I *D sky130_fd_sc_hd__o211a_1
*I *547:X O *D sky130_fd_sc_hd__o221a_1
*CAP
1 *548:B1 0.000174759
2 *547:X 0.000174759
3 *548:B1 *548:A1 0.000138859
4 *548:B1 *548:C1 5.55743e-06
5 *548:B1 *76:8 5.58003e-05
6 *548:B1 *79:60 2.69681e-05
7 *548:B1 *174:46 8.48502e-06
8 *547:B1 *548:B1 1.35999e-05
*RES
1 *547:X *548:B1 49.5007 
*END

*D_NET *76 0.00201768
*CONN
*I *549:B1 I *D sky130_fd_sc_hd__a21oi_1
*I *548:X O *D sky130_fd_sc_hd__o211a_1
*CAP
1 *549:B1 0.000382683
2 *548:X 0.000113504
3 *76:8 0.000496187
4 *549:B1 *80:35 0.000195021
5 *549:B1 *94:10 0.000135616
6 *549:B1 *170:14 0.000567318
7 *547:B1 *76:8 7.1556e-05
8 *548:B1 *76:8 5.58003e-05
9 *51:10 *549:B1 0
10 *66:29 *549:B1 0
*RES
1 *548:X *76:8 39.5743 
2 *76:8 *549:B1 48.7093 
*END

*D_NET *77 0.002788
*CONN
*I *551:C I *D sky130_fd_sc_hd__or3_4
*I *550:X O *D sky130_fd_sc_hd__or3_4
*CAP
1 *551:C 0.000291106
2 *550:X 0.00051773
3 *77:8 0.000808837
4 *551:C *551:A 9.67842e-05
5 *551:C *78:8 0.000188926
6 *551:C *92:82 6.70361e-05
7 *551:C *131:12 0.000136486
8 *551:C *162:6 5.50049e-05
9 *551:C *162:19 9.67842e-05
10 *551:C *170:92 2.84809e-05
11 *77:8 *491:A1 0.000178517
12 *77:8 *552:B 0.000184661
13 *77:8 *552:D 0.000137651
*RES
1 *550:X *77:8 48.15 
2 *77:8 *551:C 44.5871 
*END

*D_NET *78 0.000949792
*CONN
*I *552:D I *D sky130_fd_sc_hd__nor4_4
*I *551:X O *D sky130_fd_sc_hd__or3_4
*CAP
1 *552:D 4.21236e-05
2 *551:X 8.67934e-05
3 *78:8 0.000128917
4 *552:D *552:B 0.000139352
5 *78:8 *477:A 2.77955e-05
6 *78:8 *149:50 0.000187996
7 *78:8 *170:92 1.02387e-05
8 *551:C *78:8 0.000188926
9 *77:8 *552:D 0.000137651
*RES
1 *551:X *78:8 40.9621 
2 *78:8 *552:D 39.5743 
*END

*D_NET *79 0.013976
*CONN
*I *431:B1 I *D sky130_fd_sc_hd__a2bb2o_1
*I *491:A1 I *D sky130_fd_sc_hd__o22a_1
*I *505:B2 I *D sky130_fd_sc_hd__o32a_1
*I *548:C1 I *D sky130_fd_sc_hd__o211a_1
*I *529:B1 I *D sky130_fd_sc_hd__a21o_1
*I *522:A1 I *D sky130_fd_sc_hd__o21a_1
*I *429:X O *D sky130_fd_sc_hd__or2_2
*CAP
1 *431:B1 0
2 *491:A1 0.000318292
3 *505:B2 2.75226e-05
4 *548:C1 3.56555e-05
5 *529:B1 6.82818e-05
6 *522:A1 0.000126418
7 *429:X 0
8 *79:95 0.000165861
9 *79:60 0.000861609
10 *79:43 0.00140683
11 *79:41 0.000653941
12 *79:35 0.000338532
13 *79:12 0.000591926
14 *79:8 0.00140442
15 *79:4 0.00101119
16 *491:A1 *552:B 1.76557e-05
17 *491:A1 *92:82 0
18 *491:A1 *131:12 1.32314e-05
19 *491:A1 *148:30 0.000112906
20 *491:A1 *149:50 0.000108274
21 *505:B2 *171:60 2.31687e-05
22 *522:A1 *92:52 0.000198977
23 *522:A1 *163:6 0.000142634
24 *522:A1 *165:33 0.000222823
25 *79:8 *473:B1 1.67463e-05
26 *79:8 *536:A2 0.0001449
27 *79:8 *80:64 0
28 *79:8 *84:31 4.6323e-05
29 *79:8 *148:30 0.000108672
30 *79:8 *149:37 3.31053e-05
31 *79:8 *149:50 0.000144238
32 *79:8 *152:51 0.000113414
33 *79:8 *168:20 0
34 *79:8 *169:10 0.000366524
35 *79:8 *169:57 0.00041559
36 *79:8 *169:76 9.78472e-05
37 *79:8 *170:51 0.000241192
38 *79:12 *163:6 0.000931299
39 *79:12 *165:33 0.000942835
40 *79:35 *493:B1 0.000280211
41 *79:35 *493:B2 1.8788e-05
42 *79:35 *494:A2 3.17027e-05
43 *79:35 *139:12 0.000101762
44 *79:35 *167:8 2.71291e-05
45 *79:35 *171:64 3.60842e-05
46 *79:41 *140:10 2.78373e-05
47 *79:41 *171:24 1.58201e-05
48 *79:41 *171:36 1.85903e-05
49 *79:43 *171:60 7.58527e-05
50 *79:60 *548:A1 6.17437e-06
51 *79:60 *80:14 2.90581e-05
52 *79:60 *80:35 0.000194637
53 *79:60 *167:16 0
54 *79:60 *173:53 0.000188526
55 *79:60 *173:70 0
56 *79:95 *80:64 0.00016216
57 *79:95 *156:22 0.000141954
58 *522:B1 *522:A1 9.65021e-05
59 *529:A2 *529:B1 0
60 *545:A2 *79:60 0.000190227
61 *548:B1 *548:C1 5.55743e-06
62 *548:B1 *79:60 2.69681e-05
63 *55:29 *529:B1 1.59094e-05
64 *55:29 *79:43 3.71369e-05
65 *56:10 *79:60 0.000139647
66 *56:12 *79:60 8.94394e-05
67 *58:8 *79:60 8.62876e-05
68 *66:14 *79:60 7.20518e-05
69 *66:29 *79:60 0.000164282
70 *69:23 *79:60 6.43792e-05
71 *71:8 *79:60 0
72 *77:8 *491:A1 0.000178517
*RES
1 *429:X *79:4 23 
2 *79:4 *79:8 35.5693 
3 *79:8 *79:12 25.6264 
4 *79:12 *522:A1 27.5986 
5 *79:12 *79:35 35.5307 
6 *79:35 *79:41 31.9057 
7 *79:41 *79:43 9.19714 
8 *79:43 *529:B1 24.1186 
9 *79:43 *79:60 49.4507 
10 *79:60 *548:C1 23.8493 
11 *79:41 *505:B2 23.6214 
12 *79:8 *491:A1 44.6907 
13 *79:4 *79:95 33.8321 
14 *79:95 *431:B1 23 
*END

*D_NET *80 0.0126384
*CONN
*I *431:B2 I *D sky130_fd_sc_hd__a2bb2o_1
*I *470:B1 I *D sky130_fd_sc_hd__a21oi_1
*I *492:B1 I *D sky130_fd_sc_hd__a21oi_1
*I *548:A1 I *D sky130_fd_sc_hd__o211a_1
*I *430:X O *D sky130_fd_sc_hd__or3b_2
*CAP
1 *431:B2 0
2 *470:B1 0
3 *492:B1 0
4 *548:A1 5.66549e-05
5 *430:X 0
6 *80:64 0.000765207
7 *80:52 0.00182489
8 *80:35 0.000716625
9 *80:14 0.0019623
10 *80:4 0.0022487
11 *548:A1 *173:53 3.81949e-05
12 *548:A1 *174:46 6.17437e-06
13 *80:14 *436:C 0.000632545
14 *80:14 *89:12 0
15 *80:14 *94:10 4.16051e-06
16 *80:14 *152:59 0
17 *80:14 *153:12 0
18 *80:14 *154:6 4.95081e-05
19 *80:14 *154:19 4.43717e-05
20 *80:14 *154:30 5.20202e-05
21 *80:14 *154:54 0.000125802
22 *80:14 *170:14 0
23 *80:14 *174:46 0.000371357
24 *80:35 *92:52 0.000295171
25 *80:35 *94:10 8.27077e-05
26 *80:35 *165:8 5.50049e-05
27 *80:35 *165:33 0.000197879
28 *80:52 *436:C 0.000363317
29 *80:52 *86:10 0
30 *80:52 *87:8 3.71369e-05
31 *80:52 *146:8 1.03836e-05
32 *80:52 *155:41 2.29192e-05
33 *80:64 *440:B 0.000110218
34 *80:64 *473:B1 3.53859e-05
35 *80:64 *84:31 0.000440453
36 *80:64 *84:59 0.000309445
37 *80:64 *84:71 6.72393e-05
38 *80:64 *89:85 9.96802e-05
39 *80:64 *109:57 1.75562e-05
40 *80:64 *118:18 1.35999e-05
41 *80:64 *146:35 6.70827e-05
42 *80:64 *149:31 0.000219806
43 *80:64 *163:12 0
44 *80:64 *168:32 3.0918e-05
45 *80:64 *168:47 0
46 *80:64 *175:41 0
47 result[0] *80:52 8.80821e-05
48 *547:B1 *80:14 1.39826e-05
49 *548:B1 *548:A1 0.000138859
50 *549:B1 *80:35 0.000195021
51 *562:A *80:14 0
52 *45:14 *80:35 0.000185221
53 *66:29 *80:35 6.6869e-05
54 *67:10 *80:14 0.000161121
55 *69:23 *80:14 2.28401e-05
56 *79:8 *80:64 0
57 *79:60 *548:A1 6.17437e-06
58 *79:60 *80:14 2.90581e-05
59 *79:60 *80:35 0.000194637
60 *79:95 *80:64 0.00016216
*RES
1 *430:X *80:4 23 
2 *80:4 *80:14 38.8214 
3 *80:14 *548:A1 39.5743 
4 *80:14 *80:35 48.7257 
5 *80:35 *492:B1 38 
6 *80:4 *80:52 48.2493 
7 *80:52 *80:64 49.2643 
8 *80:64 *470:B1 23 
9 *80:52 *431:B2 23 
*END

*D_NET *81 0.000849183
*CONN
*I *432:B1 I *D sky130_fd_sc_hd__a21oi_1
*I *431:X O *D sky130_fd_sc_hd__a2bb2o_1
*CAP
1 *432:B1 0.0001253
2 *431:X 8.58331e-05
3 *81:8 0.000211133
4 *432:B1 *432:A2 4.17736e-05
5 *432:B1 *146:14 0.00010018
6 *432:B1 *158:24 3.34247e-05
7 *432:B1 *175:49 5.50049e-05
8 *81:8 *158:24 9.8963e-05
9 *81:8 *163:12 1.94418e-05
10 *81:8 *175:49 7.8128e-05
*RES
1 *431:X *81:8 40.2579 
2 *81:8 *432:B1 41.0243 
*END

*D_NET *82 0.00154044
*CONN
*I *441:A I *D sky130_fd_sc_hd__or4_1
*I *432:Y O *D sky130_fd_sc_hd__a21oi_1
*CAP
1 *441:A 0
2 *432:Y 0.000536713
3 *82:14 0.000536713
4 *82:14 *85:10 6.38845e-05
5 *82:14 *158:24 0.000264559
6 *82:14 *163:12 0.00013857
*RES
1 *432:Y *82:14 45.9336 
2 *82:14 *441:A 38 
*END

*D_NET *83 0.00416287
*CONN
*I *572:A I *D sky130_fd_sc_hd__clkbuf_2
*I *494:A3 I *D sky130_fd_sc_hd__a31o_1
*I *433:Y O *D sky130_fd_sc_hd__nor3b_1
*CAP
1 *572:A 0.000255857
2 *494:A3 0.000122687
3 *433:Y 0
4 *83:10 0.000921419
5 *83:4 0.00105459
6 *494:A3 *494:A2 5.67058e-05
7 *494:A3 *494:B1 9.67842e-05
8 *494:A3 *552:B 3.06709e-05
9 *494:A3 *139:12 1.32314e-05
10 *572:A *174:36 0.000149626
11 *83:10 *496:A2 0.000202868
12 *83:10 *84:10 0.000371862
13 *83:10 *84:89 0.000382986
14 *83:10 *87:27 0
15 *83:10 *92:38 5.73245e-05
16 *83:10 *92:61 6.7522e-05
17 *83:10 *142:10 0.000172667
18 *83:10 *171:64 7.12953e-05
19 *49:10 *83:10 0.000134776
*RES
1 *433:Y *83:4 23 
2 *83:4 *83:10 49.1607 
3 *83:10 *494:A3 25.5271 
4 *83:4 *572:A 26.5007 
*END

*D_NET *84 0.01536
*CONN
*I *496:A2 I *D sky130_fd_sc_hd__a221o_1
*I *488:B1 I *D sky130_fd_sc_hd__a2bb2o_1
*I *473:B1 I *D sky130_fd_sc_hd__a32o_1
*I *462:A2 I *D sky130_fd_sc_hd__a221o_1
*I *534:A2 I *D sky130_fd_sc_hd__a22o_1
*I *435:B1 I *D sky130_fd_sc_hd__a32o_1
*I *519:B1 I *D sky130_fd_sc_hd__a2bb2o_1
*I *434:X O *D sky130_fd_sc_hd__and3_2
*CAP
1 *496:A2 0.000215091
2 *488:B1 4.37454e-05
3 *473:B1 0.000173222
4 *462:A2 0
5 *534:A2 7.24713e-05
6 *435:B1 0
7 *519:B1 0
8 *434:X 0.000180445
9 *84:89 0.000461669
10 *84:71 0.000858056
11 *84:59 0.00117063
12 *84:45 0.000369816
13 *84:31 0.000939426
14 *84:25 0.000807569
15 *84:16 0.000407603
16 *84:10 0.00083381
17 *84:8 0.000574894
18 *473:B1 *473:A3 0.000167514
19 *473:B1 *473:B2 0.000100486
20 *473:B1 *536:A2 3.58747e-05
21 *473:B1 *109:61 4.74882e-05
22 *473:B1 *148:30 3.75177e-05
23 *473:B1 *149:31 1.91184e-05
24 *473:B1 *168:32 6.33771e-05
25 *473:B1 *169:76 8.36198e-05
26 *488:B1 *488:B2 0.000186041
27 *488:B1 *109:57 0.000186041
28 *496:A2 *87:52 0.000335106
29 *496:A2 *92:38 9.66177e-05
30 *496:A2 *170:29 0.000177686
31 *534:A2 *534:B1 0.00021023
32 *534:A2 *174:36 0.000222668
33 *84:8 *453:B 0.000228909
34 *84:8 *155:99 2.28212e-05
35 *84:10 *102:12 0.000711114
36 *84:10 *155:79 0
37 *84:16 *519:A2_N 0.000100486
38 *84:16 *102:31 5.82853e-05
39 *84:16 *172:61 0.000110894
40 *84:16 *172:76 2.193e-05
41 *84:16 *173:45 3.26241e-05
42 *84:16 *173:53 3.92621e-05
43 *84:25 *102:31 9.91548e-05
44 *84:25 *169:14 0.000179725
45 *84:25 *173:45 6.10638e-05
46 *84:31 *534:B1 5.3304e-05
47 *84:31 *536:A2 0.000286306
48 *84:31 *174:36 0.000605449
49 *84:45 *435:A1 2.07047e-05
50 *84:45 *461:B2 7.79942e-05
51 *84:45 *534:B1 0.000141879
52 *84:45 *146:43 8.62876e-05
53 *84:45 *175:27 2.93335e-05
54 *84:45 *175:31 9.75213e-05
55 *84:45 *175:65 1.22803e-05
56 *84:59 *536:A2 0.000304622
57 *84:71 *454:A 1.31005e-05
58 *84:71 *458:A2 0
59 *84:71 *462:A1 0.00037674
60 *84:71 *462:B2 2.58877e-05
61 *84:71 *470:A2 2.10502e-05
62 *84:71 *118:18 5.82853e-05
63 *84:71 *149:31 8.06804e-06
64 *84:71 *168:39 2.75275e-06
65 *84:71 *168:43 7.64059e-06
66 *84:71 *168:47 6.55954e-05
67 *84:89 *92:12 1.07299e-05
68 *84:89 *92:38 9.55249e-05
69 *84:89 *102:12 0.000159276
70 *49:10 *84:16 0.000182219
71 *79:8 *473:B1 1.67463e-05
72 *79:8 *84:31 4.6323e-05
73 *80:64 *473:B1 3.53859e-05
74 *80:64 *84:31 0.000440453
75 *80:64 *84:59 0.000309445
76 *80:64 *84:71 6.72393e-05
77 *83:10 *496:A2 0.000202868
78 *83:10 *84:10 0.000371862
79 *83:10 *84:89 0.000382986
*RES
1 *434:X *84:8 41.0036 
2 *84:8 *84:10 9.65286 
3 *84:10 *84:16 20.8829 
4 *84:16 *519:B1 23 
5 *84:16 *84:25 18.48 
6 *84:25 *84:31 27.9464 
7 *84:31 *84:45 37.3432 
8 *84:45 *435:B1 23 
9 *84:31 *534:A2 25.5271 
10 *84:25 *84:59 4.37071 
11 *84:59 *84:71 27.2887 
12 *84:71 *462:A2 23 
13 *84:59 *473:B1 43.1268 
14 *84:10 *84:89 5.42714 
15 *84:89 *488:B1 40.0507 
16 *84:89 *496:A2 44.6907 
*END

*D_NET *85 0.000899271
*CONN
*I *441:B I *D sky130_fd_sc_hd__or4_1
*I *435:X O *D sky130_fd_sc_hd__a32o_1
*CAP
1 *441:B 6.90167e-05
2 *435:X 0.000210349
3 *85:10 0.000279366
4 *441:B *441:C 2.93845e-05
5 *85:10 *438:B1 2.82708e-05
6 *85:10 *534:B1 6.92184e-05
7 *85:10 *146:39 9.5877e-05
8 *85:10 *163:12 5.39045e-05
9 *85:10 *175:10 0
10 *85:10 *175:14 0
11 *82:14 *85:10 6.38845e-05
*RES
1 *435:X *85:10 41.7079 
2 *85:10 *441:B 39.1186 
*END

*D_NET *86 0.000723917
*CONN
*I *437:A I *D sky130_fd_sc_hd__buf_2
*I *436:X O *D sky130_fd_sc_hd__and3b_1
*CAP
1 *437:A 0
2 *436:X 0.000297758
3 *86:10 0.000297758
4 *86:10 *146:8 0.000128401
5 *80:52 *86:10 0
*RES
1 *436:X *86:10 42.785 
2 *86:10 *437:A 38 
*END

*D_NET *87 0.0154586
*CONN
*I *438:B1 I *D sky130_fd_sc_hd__o21a_1
*I *534:B1 I *D sky130_fd_sc_hd__a22o_1
*I *493:B1 I *D sky130_fd_sc_hd__o22a_1
*I *471:B1 I *D sky130_fd_sc_hd__o22a_1
*I *462:B1 I *D sky130_fd_sc_hd__a221o_1
*I *490:A1 I *D sky130_fd_sc_hd__a211o_1
*I *518:B2 I *D sky130_fd_sc_hd__a2bb2o_1
*I *546:B2 I *D sky130_fd_sc_hd__a22oi_1
*I *437:X O *D sky130_fd_sc_hd__buf_2
*CAP
1 *438:B1 0.000104326
2 *534:B1 0.000397107
3 *493:B1 0.000405081
4 *471:B1 4.39916e-05
5 *462:B1 0
6 *490:A1 0
7 *518:B2 6.31151e-05
8 *546:B2 0.000200992
9 *437:X 7.6311e-05
10 *87:110 0.00165417
11 *87:79 0.000346671
12 *87:69 0.00104677
13 *87:52 0.00111067
14 *87:44 0.00121686
15 *87:27 0.000736425
16 *87:14 0.00122882
17 *87:8 0.00194078
18 *438:B1 *91:8 3.22879e-05
19 *438:B1 *146:71 1.52045e-05
20 *438:B1 *156:12 5.67058e-05
21 *438:B1 *158:33 7.57281e-06
22 *471:B1 *105:44 5.3304e-05
23 *471:B1 *119:10 4.91172e-06
24 *493:B1 *494:A2 0.000144494
25 *493:B1 *167:8 7.25874e-05
26 *493:B1 *172:39 0
27 *518:B2 *105:14 0.000140224
28 *534:B1 *435:A3 2.60152e-05
29 *534:B1 *451:A 0.000141538
30 *534:B1 *146:43 4.95442e-05
31 *534:B1 *158:33 1.88014e-05
32 *534:B1 *163:12 2.29895e-05
33 *534:B1 *174:22 1.34914e-05
34 *534:B1 *174:36 2.46906e-05
35 *534:B1 *175:65 0.00014411
36 *546:B2 *109:18 0.000152913
37 *546:B2 *152:59 0.000296664
38 *87:14 *89:56 1.01436e-05
39 *87:14 *92:12 0.000171941
40 *87:14 *102:12 4.16868e-05
41 *87:14 *152:59 0.000256154
42 *87:14 *169:10 0
43 *87:44 *89:33 8.81493e-05
44 *87:44 *167:8 2.26679e-05
45 *87:44 *171:64 1.33792e-05
46 *87:52 *496:A1 3.81033e-05
47 *87:52 *133:14 5.58003e-05
48 *87:52 *170:29 0.000116877
49 *87:69 *473:A3 1.55381e-05
50 *87:69 *473:B2 0.000116554
51 *87:69 *490:C1 5.5792e-05
52 *87:69 *119:10 4.94011e-05
53 *87:69 *121:10 5.50049e-05
54 *87:69 *133:14 9.8592e-06
55 *87:69 *148:30 0.000318924
56 *87:69 *170:29 5.50049e-05
57 *87:69 *170:70 7.82806e-05
58 *87:79 *105:44 0.00022034
59 *87:79 *110:12 3.36312e-06
60 *87:79 *157:38 0.0001366
61 *87:79 *158:33 0
62 *87:79 *168:81 3.54728e-05
63 *87:110 *89:106 0
64 *496:A2 *87:52 0.000335106
65 *518:A2_N *518:B2 3.23857e-06
66 *518:B1 *518:B2 5.56279e-05
67 *520:A2 *518:B2 2.46906e-05
68 *520:A3 *518:B2 4.08664e-05
69 *534:A2 *534:B1 0.00021023
70 *534:B2 *534:B1 2.02517e-05
71 *546:B1 *546:B2 3.85196e-05
72 *47:8 *87:27 0.000109343
73 *47:8 *87:44 2.4306e-05
74 *50:10 *87:44 3.11916e-05
75 *65:18 *87:14 0
76 *79:35 *493:B1 0.000280211
77 *80:52 *87:8 3.71369e-05
78 *83:10 *87:27 0
79 *84:31 *534:B1 5.3304e-05
80 *84:45 *534:B1 0.000141879
81 *85:10 *438:B1 2.82708e-05
82 *85:10 *534:B1 6.92184e-05
*RES
1 *437:X *87:8 39.0979 
2 *87:8 *87:14 27.9257 
3 *87:14 *546:B2 29.3593 
4 *87:14 *87:27 20.4271 
5 *87:27 *518:B2 40.0714 
6 *87:27 *87:44 6.19357 
7 *87:44 *87:52 23.7621 
8 *87:52 *490:A1 23 
9 *87:52 *87:69 13.7129 
10 *87:69 *87:79 35.7586 
11 *87:79 *462:B1 23 
12 *87:69 *471:B1 24.0979 
13 *87:44 *493:B1 46.0579 
14 *87:8 *87:110 18.4603 
15 *87:110 *534:B1 47.6218 
16 *87:110 *438:B1 40.2682 
*END

*D_NET *88 0.000345909
*CONN
*I *441:C I *D sky130_fd_sc_hd__or4_1
*I *438:X O *D sky130_fd_sc_hd__o21a_1
*CAP
1 *441:C 8.25529e-05
2 *438:X 8.25529e-05
3 *441:C *91:8 5.67058e-05
4 *441:C *156:12 9.4713e-05
5 *441:B *441:C 2.93845e-05
*RES
1 *438:X *441:C 48.0507 
*END

*D_NET *89 0.0151267
*CONN
*I *488:A2_N I *D sky130_fd_sc_hd__a2bb2o_1
*I *519:A2_N I *D sky130_fd_sc_hd__a2bb2o_1
*I *535:B I *D sky130_fd_sc_hd__nor2_1
*I *461:A2_N I *D sky130_fd_sc_hd__a2bb2o_1
*I *472:A2_N I *D sky130_fd_sc_hd__a2bb2o_1
*I *440:B I *D sky130_fd_sc_hd__nor2_1
*I *495:B I *D sky130_fd_sc_hd__nor2_1
*I *547:A2 I *D sky130_fd_sc_hd__o221a_1
*I *439:Y O *D sky130_fd_sc_hd__nand3b_4
*CAP
1 *488:A2_N 0
2 *519:A2_N 2.13535e-05
3 *535:B 0
4 *461:A2_N 0
5 *472:A2_N 4.91831e-05
6 *440:B 0.000381262
7 *495:B 0
8 *547:A2 0
9 *439:Y 0.00054214
10 *89:135 0.000145736
11 *89:106 0.000658352
12 *89:85 0.000605562
13 *89:58 0.00159599
14 *89:56 0.000496831
15 *89:44 0.000760301
16 *89:40 0.000802382
17 *89:33 3.27151e-05
18 *89:27 0.00117706
19 *89:14 0.00109784
20 *89:12 0.000910159
21 *440:B *435:A3 0
22 *440:B *146:35 5.50106e-05
23 *440:B *146:39 8.53415e-05
24 *440:B *163:12 0
25 *440:B *173:45 9.28078e-06
26 *472:A2_N *462:A1 2.193e-05
27 *472:A2_N *168:47 9.66668e-05
28 *472:A2_N *168:81 0.000138859
29 *519:A2_N *172:61 5.58003e-05
30 *519:A2_N *172:76 5.82853e-05
31 *89:12 *439:B 0.000359536
32 *89:12 *154:30 0
33 *89:12 *154:54 0
34 *89:12 *155:33 0.000274234
35 *89:14 *170:14 0.000554075
36 *89:27 *109:43 2.83509e-05
37 *89:27 *109:57 0.000223906
38 *89:27 *151:48 8.50366e-05
39 *89:27 *170:14 0.000367716
40 *89:40 *109:57 0.000574262
41 *89:44 *92:12 4.07718e-05
42 *89:44 *92:38 4.50022e-05
43 *89:44 *134:10 8.57485e-05
44 *89:56 *536:A2 2.81041e-05
45 *89:56 *92:12 6.47659e-05
46 *89:56 *152:59 0.00047934
47 *89:56 *172:76 0.000410328
48 *89:56 *173:37 0
49 *89:85 *470:A2 1.74874e-06
50 *89:85 *149:14 0.000234542
51 *89:85 *149:31 1.74126e-05
52 *89:85 *163:12 0.000209945
53 *89:85 *173:45 0.000208028
54 *89:106 *435:B2 5.58873e-06
55 *89:135 *109:57 0.000123723
56 *89:135 *134:10 8.88885e-05
57 *89:135 *170:35 4.41821e-06
58 *536:B1 *89:56 1.46594e-05
59 *536:C1 *89:56 0.000181125
60 *50:10 *89:33 8.81493e-05
61 *63:8 *89:106 2.26497e-05
62 *65:8 *89:56 4.21281e-05
63 *65:18 *89:135 5.58003e-05
64 *80:14 *89:12 0
65 *80:64 *440:B 0.000110218
66 *80:64 *89:85 9.96802e-05
67 *84:16 *519:A2_N 0.000100486
68 *87:14 *89:56 1.01436e-05
69 *87:44 *89:33 8.81493e-05
70 *87:110 *89:106 0
*RES
1 *439:Y *89:12 48.3779 
2 *89:12 *89:14 7.54 
3 *89:14 *547:A2 38 
4 *89:14 *89:27 26.4136 
5 *89:27 *89:33 31.2014 
6 *89:33 *495:B 23 
7 *89:27 *89:40 6.33857 
8 *89:40 *89:44 19.7229 
9 *89:44 *89:56 27.6979 
10 *89:56 *89:58 15 
11 *89:58 *440:B 45.7886 
12 *89:58 *89:85 41.6207 
13 *89:85 *472:A2_N 39.5743 
14 *89:58 *89:106 32.5792 
15 *89:106 *461:A2_N 23 
16 *89:56 *535:B 23 
17 *89:44 *519:A2_N 39.0979 
18 *89:40 *89:135 32.9207 
19 *89:135 *488:A2_N 23 
*END

*D_NET *90 0.000560416
*CONN
*I *441:D I *D sky130_fd_sc_hd__or4_1
*I *440:Y O *D sky130_fd_sc_hd__nor2_1
*CAP
1 *441:D 5.29994e-05
2 *440:Y 0.000107178
3 *90:10 0.000160178
4 *441:D *156:12 6.68184e-05
5 *90:10 *146:39 5.50049e-05
6 *90:10 *156:22 3.56594e-05
7 *90:10 *175:41 8.25782e-05
*RES
1 *440:Y *90:10 39.8229 
2 *90:10 *441:D 39.1186 
*END

*D_NET *91 0.000763589
*CONN
*I *442:A I *D sky130_fd_sc_hd__buf_1
*I *441:X O *D sky130_fd_sc_hd__or4_1
*CAP
1 *442:A 0
2 *441:X 0.000277736
3 *91:8 0.000277736
4 *91:8 *146:71 3.22051e-05
5 *91:8 *156:12 8.69177e-05
6 *438:B1 *91:8 3.22879e-05
7 *441:C *91:8 5.67058e-05
*RES
1 *441:X *91:8 28.2821 
2 *91:8 *442:A 23 
*END

*D_NET *92 0.0164996
*CONN
*I *463:A1 I *D sky130_fd_sc_hd__a211o_1
*I *475:A1 I *D sky130_fd_sc_hd__a31o_1
*I *494:B1 I *D sky130_fd_sc_hd__a31o_1
*I *545:B1 I *D sky130_fd_sc_hd__o31a_1
*I *487:B1 I *D sky130_fd_sc_hd__a31o_1
*I *520:C1 I *D sky130_fd_sc_hd__a311o_1
*I *443:Y O *D sky130_fd_sc_hd__nor2_2
*CAP
1 *463:A1 0.00042327
2 *475:A1 0
3 *494:B1 8.58931e-05
4 *545:B1 0
5 *487:B1 0.000211061
6 *520:C1 8.79127e-05
7 *443:Y 0.000181268
8 *92:92 0.000531089
9 *92:82 0.00202783
10 *92:61 0.00134446
11 *92:52 0.000973784
12 *92:38 0.00155438
13 *92:14 0.000298973
14 *92:12 0.000760751
15 *92:10 0.000546525
16 *463:A1 *446:A1 2.93845e-05
17 *463:A1 *446:A2 1.51198e-05
18 *463:A1 *452:A 5.33384e-05
19 *463:A1 *452:B 0.000382073
20 *463:A1 *463:A2 7.22771e-05
21 *463:A1 *463:C1 9.77405e-05
22 *463:A1 *94:93 0
23 *463:A1 *147:16 0.00023538
24 *487:B1 *487:A2 5.91337e-05
25 *487:B1 *102:21 0.000349851
26 *487:B1 *102:42 0.000190433
27 *487:B1 *134:10 5.33272e-05
28 *494:B1 *552:B 0.000224605
29 *520:C1 *520:A1 9.41704e-05
30 *520:C1 *102:21 5.3304e-05
31 *92:10 *156:40 4.95081e-05
32 *92:10 *156:53 0.000146959
33 *92:12 *102:12 0.000731727
34 *92:38 *134:10 0
35 *92:52 *163:6 0.000521782
36 *92:52 *165:8 0.000102482
37 *92:52 *165:18 7.19852e-05
38 *92:52 *165:33 9.77922e-06
39 *92:61 *134:10 0
40 *92:82 *446:A1 6.53382e-05
41 *92:82 *498:A2 0.000119313
42 *92:82 *498:A3 1.5769e-05
43 *92:82 *498:A4 0.000183733
44 *92:82 *552:B 0.00019486
45 *92:82 *161:10 5.06045e-05
46 *92:82 *170:92 0.000139647
47 *92:82 *175:69 9.6103e-05
48 *92:82 *175:77 0.00010018
49 *92:92 *449:B1 0
50 *92:92 *475:A2 0.000178621
51 *92:92 *482:A 2.46906e-05
52 *92:92 *95:10 0.000138718
53 *92:92 *115:29 0.000190549
54 *92:92 *122:14 0.000978086
55 *92:92 *157:10 0
56 *92:92 *157:38 0
57 *491:A1 *92:82 0
58 *494:A3 *494:B1 9.67842e-05
59 *496:A2 *92:38 9.66177e-05
60 *522:A1 *92:52 0.000198977
61 *545:A3 *92:52 5.50049e-05
62 *549:A2 *92:52 1.94693e-05
63 *551:C *92:82 6.70361e-05
64 *45:14 *92:52 5.3304e-05
65 *66:29 *92:52 1.59094e-05
66 *80:35 *92:52 0.000295171
67 *83:10 *92:38 5.73245e-05
68 *83:10 *92:61 6.7522e-05
69 *84:89 *92:12 1.07299e-05
70 *84:89 *92:38 9.55249e-05
71 *87:14 *92:12 0.000171941
72 *89:44 *92:12 4.07718e-05
73 *89:44 *92:38 4.50022e-05
74 *89:56 *92:12 6.47659e-05
*RES
1 *443:Y *92:10 41.0243 
2 *92:10 *92:12 10.3571 
3 *92:12 *92:14 15 
4 *92:14 *520:C1 24.5743 
5 *92:14 *487:B1 29.582 
6 *92:12 *92:38 8.24429 
7 *92:38 *92:52 33.4771 
8 *92:52 *545:B1 23 
9 *92:38 *92:61 18.3143 
10 *92:61 *494:B1 25.5271 
11 *92:61 *92:82 47.6071 
12 *92:82 *92:92 43.8371 
13 *92:92 *475:A1 23 
14 *92:82 *463:A1 33.2536 
*END

*D_NET *93 0.000747822
*CONN
*I *445:A I *D sky130_fd_sc_hd__buf_6
*I *444:X O *D sky130_fd_sc_hd__or3b_4
*CAP
1 *445:A 5.51407e-05
2 *444:X 0.000204744
3 *93:14 0.000259885
4 *445:A *174:36 0.000100061
5 *93:14 *434:B 0
6 *93:14 *444:A 2.58554e-05
7 *93:14 *108:10 8.51329e-05
8 *93:14 *154:58 1.08287e-05
9 *93:14 *155:64 6.17437e-06
*RES
1 *444:X *93:14 42.35 
2 *93:14 *445:A 39.0979 
*END

*D_NET *94 0.0134417
*CONN
*I *465:B1 I *D sky130_fd_sc_hd__o21a_1
*I *446:A2 I *D sky130_fd_sc_hd__a21bo_1
*I *447:B I *D sky130_fd_sc_hd__nand3b_1
*I *476:A2 I *D sky130_fd_sc_hd__a21o_1
*I *498:B1 I *D sky130_fd_sc_hd__o41a_1
*I *507:A2 I *D sky130_fd_sc_hd__a21o_1
*I *524:A2 I *D sky130_fd_sc_hd__a21oi_1
*I *542:B1 I *D sky130_fd_sc_hd__o31a_1
*I *445:X O *D sky130_fd_sc_hd__buf_6
*CAP
1 *465:B1 0
2 *446:A2 7.70661e-05
3 *447:B 2.16725e-05
4 *476:A2 0
5 *498:B1 0
6 *507:A2 0
7 *524:A2 9.01682e-05
8 *542:B1 0
9 *445:X 0.000352349
10 *94:93 0.000456941
11 *94:79 0.000425081
12 *94:72 0.000151199
13 *94:63 8.59101e-05
14 *94:55 0.00159433
15 *94:40 0.00198365
16 *94:27 0.000795449
17 *94:14 0.000313905
18 *94:10 0.000520532
19 *446:A2 *446:A1 0.000180224
20 *446:A2 *147:16 0.000226018
21 *446:A2 *147:25 1.56762e-05
22 *446:A2 *175:69 4.08664e-05
23 *447:B *447:C 1.22308e-05
24 *447:B *147:25 2.43233e-05
25 *447:B *175:69 9.89948e-05
26 *524:A2 *151:27 0.000268065
27 *94:10 *109:18 6.38845e-05
28 *94:10 *170:14 0.000171789
29 *94:10 *174:36 5.67058e-05
30 *94:10 *174:46 1.37246e-05
31 *94:14 *151:36 0.000195194
32 *94:27 *542:A1 4.19566e-05
33 *94:27 *151:27 0.000191028
34 *94:27 *151:36 4.44894e-05
35 *94:40 *151:21 0
36 *94:40 *165:18 0
37 *94:40 *173:78 0.000197479
38 *94:55 *476:B1 1.39317e-05
39 *94:55 *144:12 0.0022914
40 *94:55 *144:29 2.79004e-05
41 *94:55 *151:21 0
42 *94:55 *165:18 0
43 *94:63 *477:A 9.33529e-06
44 *94:63 *498:A4 1.42605e-05
45 *94:63 *144:8 3.56537e-05
46 *94:63 *148:22 0.000157309
47 *94:63 *148:30 1.01436e-05
48 *94:72 *476:B1 2.19677e-05
49 *94:79 *476:B1 2.30292e-05
50 *94:93 *96:8 0.000136486
51 *94:93 *147:25 6.47194e-05
52 *94:93 *147:27 0
53 *94:93 *147:51 8.28302e-05
54 *94:93 *175:77 0
55 *463:A1 *446:A2 1.51198e-05
56 *463:A1 *94:93 0
57 *526:B *94:40 2.57899e-05
58 *542:A3 *524:A2 5.66866e-05
59 *542:A3 *94:27 0.00015503
60 *543:B *524:A2 2.95423e-05
61 *543:B *94:27 7.95762e-05
62 *544:B1 *94:40 0.000240695
63 *547:B1 *94:10 0.000211701
64 *549:B1 *94:10 0.000135616
65 *54:8 *94:40 0.000111625
66 *57:8 *94:55 0
67 *68:10 *94:10 0.000136486
68 *69:12 *94:40 1.74126e-05
69 *71:8 *94:40 0.000539647
70 *80:14 *94:10 4.16051e-06
71 *80:35 *94:10 8.27077e-05
*RES
1 *445:X *94:10 46.5136 
2 *94:10 *94:14 18.9564 
3 *94:14 *542:B1 23 
4 *94:14 *94:27 5.44786 
5 *94:27 *524:A2 26.0243 
6 *94:27 *94:40 29.935 
7 *94:40 *507:A2 38 
8 *94:40 *94:55 44.2279 
9 *94:55 *94:63 32.5323 
10 *94:63 *498:B1 23 
11 *94:55 *94:72 1.595 
12 *94:72 *476:A2 23 
13 *94:72 *94:79 1.57429 
14 *94:79 *94:93 37.0014 
15 *94:93 *447:B 24.5536 
16 *94:93 *446:A2 26.0036 
17 *94:79 *465:B1 23 
*END

*D_NET *95 0.00151082
*CONN
*I *448:B I *D sky130_fd_sc_hd__and3_1
*I *449:A1 I *D sky130_fd_sc_hd__a21o_1
*I *446:X O *D sky130_fd_sc_hd__a21bo_1
*CAP
1 *448:B 0.00030676
2 *449:A1 0
3 *446:X 0.000188014
4 *95:14 0.000327606
5 *95:10 0.00020886
6 *448:B *448:C 3.09786e-05
7 *448:B *449:A2 1.14154e-05
8 *448:B *449:B1 9.89664e-05
9 *95:10 *147:16 0.000146197
10 *95:10 *157:38 0
11 *95:14 *448:C 5.3304e-05
12 *92:92 *95:10 0.000138718
*RES
1 *446:X *95:10 41.48 
2 *95:10 *95:14 15.6214 
3 *95:14 *449:A1 23 
4 *95:14 *448:B 27.6814 
*END

*D_NET *96 0.00156445
*CONN
*I *448:C I *D sky130_fd_sc_hd__and3_1
*I *449:A2 I *D sky130_fd_sc_hd__a21o_1
*I *447:Y O *D sky130_fd_sc_hd__nand3b_1
*CAP
1 *448:C 0.000227751
2 *449:A2 2.0995e-05
3 *447:Y 0.000151017
4 *96:12 0.000358006
5 *96:8 0.000260277
6 *448:C *449:B1 0.000135986
7 *448:C *98:10 9.06701e-05
8 *449:A2 *147:51 0
9 *96:8 *122:14 5.05552e-05
10 *96:8 *175:65 3.70094e-05
11 *96:8 *175:77 0
12 *448:B *448:C 3.09786e-05
13 *448:B *449:A2 1.14154e-05
14 *94:93 *96:8 0.000136486
15 *95:14 *448:C 5.3304e-05
*RES
1 *447:Y *96:8 40.9621 
2 *96:8 *96:12 16.5743 
3 *96:12 *449:A2 23.4971 
4 *96:12 *448:C 28.1786 
*END

*D_NET *97 0.00191291
*CONN
*I *450:A I *D sky130_fd_sc_hd__or2b_1
*I *464:B1 I *D sky130_fd_sc_hd__a21oi_1
*I *448:X O *D sky130_fd_sc_hd__and3_1
*CAP
1 *450:A 0
2 *464:B1 0
3 *448:X 4.6478e-05
4 *97:27 0.000340992
5 *97:12 0.000165954
6 *97:6 0.000553424
7 *97:6 *98:10 5.52998e-05
8 *97:12 *98:16 0.000126144
9 *97:12 *147:16 3.85802e-05
10 *97:12 *159:23 0
11 *97:12 *160:16 9.47645e-05
12 *97:27 *463:C1 7.19751e-05
13 *97:27 *550:B 5.79559e-05
14 *97:27 *98:10 9.92345e-05
15 *97:27 *98:33 9.70875e-05
16 *97:27 *99:10 6.22448e-06
17 *97:27 *107:10 0.000158796
18 *97:27 *160:16 0
*RES
1 *448:X *97:6 23.6214 
2 *97:6 *97:12 34.3707 
3 *97:12 *464:B1 23 
4 *97:6 *97:27 36.2143 
5 *97:27 *450:A 23 
*END

*D_NET *98 0.00272549
*CONN
*I *450:B_N I *D sky130_fd_sc_hd__or2b_1
*I *464:A1 I *D sky130_fd_sc_hd__a21oi_1
*I *449:X O *D sky130_fd_sc_hd__a21o_1
*CAP
1 *450:B_N 0
2 *464:A1 0
3 *449:X 0.000249911
4 *98:33 0.000306397
5 *98:16 0.000164769
6 *98:10 0.000721078
7 *98:10 *147:16 9.61498e-05
8 *98:33 *550:B 0.000293226
9 *98:33 *100:10 2.60152e-05
10 *98:33 *107:10 0.000243605
11 *98:33 *147:16 7.88293e-05
12 *98:33 *159:23 7.70737e-05
13 *448:C *98:10 9.06701e-05
14 *97:6 *98:10 5.52998e-05
15 *97:12 *98:16 0.000126144
16 *97:27 *98:10 9.92345e-05
17 *97:27 *98:33 9.70875e-05
*RES
1 *449:X *98:10 27.5986 
2 *98:10 *98:16 33.6664 
3 *98:16 *464:A1 23 
4 *98:10 *98:33 38.2443 
5 *98:33 *450:B_N 23 
*END

*D_NET *99 0.00086166
*CONN
*I *452:A I *D sky130_fd_sc_hd__xnor2_1
*I *450:X O *D sky130_fd_sc_hd__or2b_1
*CAP
1 *452:A 5.68203e-05
2 *450:X 0.00017567
3 *99:10 0.000232491
4 *452:A *463:A2 3.23857e-06
5 *452:A *147:16 1.12349e-05
6 *99:10 *463:C1 0.000160915
7 *99:10 *550:B 0.000102389
8 *99:10 *160:16 5.93381e-05
9 *463:A1 *452:A 5.33384e-05
10 *97:27 *99:10 6.22448e-06
*RES
1 *450:X *99:10 41.7079 
2 *99:10 *452:A 39.3361 
*END

*D_NET *100 0.00661174
*CONN
*I *464:A2 I *D sky130_fd_sc_hd__a21oi_1
*I *452:B I *D sky130_fd_sc_hd__xnor2_1
*I *451:X O *D sky130_fd_sc_hd__or2b_1
*CAP
1 *464:A2 0.000357803
2 *452:B 0.000317729
3 *451:X 7.8113e-05
4 *100:10 0.00138118
5 *100:8 0.000783756
6 *452:B *463:A2 1.21972e-05
7 *464:A2 *550:B 0.000101708
8 *464:A2 *147:66 0.000272312
9 *464:A2 *159:23 0.000380342
10 *464:A2 *174:10 0
11 *100:8 *174:22 0.000135037
12 *100:10 *531:A 3.79743e-05
13 *100:10 *550:B 0.000139657
14 *100:10 *102:65 0.000568611
15 *100:10 *103:25 7.52305e-05
16 *100:10 *107:10 0.000143186
17 *100:10 *147:66 0.000838602
18 *100:10 *147:76 0.000218382
19 *100:10 *173:10 0.000169089
20 *463:A1 *452:B 0.000382073
21 *532:B *100:8 2.93845e-05
22 *59:8 *100:10 0.000163361
23 *98:33 *100:10 2.60152e-05
*RES
1 *451:X *100:8 39.5743 
2 *100:8 *100:10 22.33 
3 *100:10 *452:B 43.4064 
4 *100:10 *464:A2 46.5343 
*END

*D_NET *101 0.00057735
*CONN
*I *463:A2 I *D sky130_fd_sc_hd__a211o_1
*I *452:Y O *D sky130_fd_sc_hd__xnor2_1
*CAP
1 *463:A2 0.000190352
2 *452:Y 0.000190352
3 *463:A2 *463:C1 5.56279e-05
4 *463:A2 *159:8 5.3304e-05
5 *452:A *463:A2 3.23857e-06
6 *452:B *463:A2 1.21972e-05
7 *463:A1 *463:A2 7.22771e-05
*RES
1 *452:Y *463:A2 49.5214 
*END

*D_NET *102 0.0111256
*CONN
*I *532:A I *D sky130_fd_sc_hd__and3_1
*I *458:A1 I *D sky130_fd_sc_hd__a31o_1
*I *487:A1 I *D sky130_fd_sc_hd__a31o_1
*I *520:A1 I *D sky130_fd_sc_hd__a311o_1
*I *453:Y O *D sky130_fd_sc_hd__nor3b_2
*CAP
1 *532:A 0
2 *458:A1 0
3 *487:A1 8.34965e-05
4 *520:A1 0.000100667
5 *453:Y 3.9216e-05
6 *102:65 0.000505048
7 *102:50 0.000206655
8 *102:42 0.00125623
9 *102:31 0.000283119
10 *102:21 0.000832738
11 *102:12 0.000531893
12 *102:8 0.000381853
13 *487:A1 *169:57 0.000159285
14 *520:A1 *105:14 0.000223077
15 *102:8 *155:99 5.50106e-05
16 *102:21 *105:14 0.000390718
17 *102:42 *455:A 2.02872e-05
18 *102:42 *485:B 9.66668e-05
19 *102:42 *105:14 0.000981955
20 *102:42 *132:14 8.06804e-06
21 *102:42 *149:14 0.000904607
22 *102:50 *454:A 7.43209e-05
23 *102:50 *458:A3 4.78593e-05
24 *102:50 *462:B2 2.64616e-05
25 *102:50 *104:8 0.0001366
26 *102:50 *110:12 2.03589e-05
27 *102:50 *149:14 3.43144e-05
28 *102:50 *157:38 2.40062e-05
29 *102:50 *157:42 3.6608e-05
30 *102:65 *455:A 7.87243e-05
31 *102:65 *147:76 0.000102971
32 *102:65 *174:10 0.000163985
33 *102:65 *174:22 5.67058e-05
34 *487:B1 *102:21 0.000349851
35 *487:B1 *102:42 0.000190433
36 *520:C1 *520:A1 9.41704e-05
37 *520:C1 *102:21 5.3304e-05
38 *65:18 *487:A1 0.000157147
39 *65:18 *102:31 4.73379e-05
40 *84:10 *102:12 0.000711114
41 *84:16 *102:31 5.82853e-05
42 *84:25 *102:31 9.91548e-05
43 *84:89 *102:12 0.000159276
44 *87:14 *102:12 4.16868e-05
45 *92:12 *102:12 0.000731727
46 *100:10 *102:65 0.000568611
*RES
1 *453:Y *102:8 38.6214 
2 *102:8 *102:12 26.7657 
3 *102:12 *520:A1 25.5271 
4 *102:12 *102:21 4.43286 
5 *102:21 *102:31 48.1279 
6 *102:31 *487:A1 40.2579 
7 *102:21 *102:42 15.3907 
8 *102:42 *102:50 34.8886 
9 *102:50 *458:A1 23 
10 *102:42 *102:65 42.5943 
11 *102:65 *532:A 23 
*END

*D_NET *103 0.00120193
*CONN
*I *457:B I *D sky130_fd_sc_hd__nor2_1
*I *458:A2 I *D sky130_fd_sc_hd__a31o_1
*I *454:Y O *D sky130_fd_sc_hd__nand2_1
*CAP
1 *457:B 0
2 *458:A2 6.83004e-05
3 *454:Y 9.07632e-05
4 *103:25 0.000173961
5 *103:6 0.000333024
6 *458:A2 *454:A 0.000102804
7 *458:A2 *454:B 1.9054e-05
8 *458:A2 *458:A3 5.95762e-05
9 *458:A2 *107:10 7.64059e-06
10 *103:6 *454:A 6.63159e-06
11 *103:6 *107:10 5.58003e-05
12 *103:6 *147:66 2.64616e-05
13 *103:6 *147:76 2.64616e-05
14 *103:25 *106:14 1.74757e-05
15 *103:25 *107:10 0.000138747
16 *84:71 *458:A2 0
17 *100:10 *103:25 7.52305e-05
*RES
1 *454:Y *103:6 24.5743 
2 *103:6 *458:A2 25.7964 
3 *103:6 *103:25 33.3557 
4 *103:25 *457:B 23 
*END

*D_NET *104 0.00137658
*CONN
*I *458:A3 I *D sky130_fd_sc_hd__a31o_1
*I *462:B2 I *D sky130_fd_sc_hd__a221o_1
*I *455:X O *D sky130_fd_sc_hd__or2_1
*CAP
1 *458:A3 0.000120607
2 *462:B2 0.000189233
3 *455:X 0.000126163
4 *104:10 0.00030984
5 *104:8 0.000126163
6 *458:A3 *454:A 7.53303e-06
7 *458:A3 *107:10 1.35999e-05
8 *462:B2 *454:A 1.60195e-05
9 *462:B2 *462:A1 7.86932e-05
10 *462:B2 *111:12 5.79559e-05
11 *462:B2 *168:81 7.3965e-06
12 *104:8 *106:14 2.6996e-05
13 *458:A2 *458:A3 5.95762e-05
14 *84:71 *462:B2 2.58877e-05
15 *102:50 *458:A3 4.78593e-05
16 *102:50 *462:B2 2.64616e-05
17 *102:50 *104:8 0.0001366
*RES
1 *455:X *104:8 40.61 
2 *104:8 *104:10 15 
3 *104:10 *462:B2 26.9357 
4 *104:10 *458:A3 25.5479 
*END

*D_NET *105 0.00854728
*CONN
*I *457:A I *D sky130_fd_sc_hd__nor2_1
*I *518:A1_N I *D sky130_fd_sc_hd__a2bb2o_1
*I *547:B2 I *D sky130_fd_sc_hd__o221a_1
*I *456:Y O *D sky130_fd_sc_hd__inv_2
*CAP
1 *457:A 0
2 *518:A1_N 3.61743e-05
3 *547:B2 0
4 *456:Y 0.000103352
5 *105:44 0.000565939
6 *105:24 0.000178144
7 *105:14 0.00180829
8 *105:10 0.00226326
9 *105:10 *456:A 7.61229e-06
10 *105:10 *461:B1 3.88629e-05
11 *105:10 *152:45 3.28925e-06
12 *105:10 *158:33 8.36198e-05
13 *105:24 *109:31 0.000134767
14 *105:24 *151:48 5.03511e-05
15 *105:24 *172:57 8.57577e-05
16 *105:24 *173:53 0.000147257
17 *105:44 *461:B1 5.6662e-05
18 *105:44 *472:B1 1.09917e-05
19 *105:44 *148:59 1.21972e-05
20 *105:44 *157:54 0.000132638
21 *105:44 *158:33 0.000431935
22 *105:44 *168:81 0.000100069
23 *105:44 *175:65 3.85729e-05
24 *471:B1 *105:44 5.3304e-05
25 *518:A2_N *518:A1_N 1.12796e-05
26 *518:B2 *105:14 0.000140224
27 *520:A1 *105:14 0.000223077
28 *520:A2 *105:14 5.49984e-05
29 *520:A3 *105:14 2.33782e-05
30 *547:B1 *105:24 3.22051e-05
31 *547:C1 *105:24 0.000100061
32 *46:6 *105:14 1.59094e-05
33 *74:10 *105:24 1.0092e-05
34 *87:79 *105:44 0.00022034
35 *102:21 *105:14 0.000390718
36 *102:42 *105:14 0.000981955
*RES
1 *456:Y *105:10 39.8229 
2 *105:10 *105:14 37.5371 
3 *105:14 *105:24 35.4064 
4 *105:24 *547:B2 23 
5 *105:14 *518:A1_N 23.8493 
6 *105:10 *105:44 27.0143 
7 *105:44 *457:A 23 
*END

*D_NET *106 0.00060706
*CONN
*I *458:B1 I *D sky130_fd_sc_hd__a31o_1
*I *457:Y O *D sky130_fd_sc_hd__nor2_1
*CAP
1 *458:B1 0
2 *457:Y 0.000238776
3 *106:14 0.000238776
4 *106:14 *107:10 8.50366e-05
5 *103:25 *106:14 1.74757e-05
6 *104:8 *106:14 2.6996e-05
*RES
1 *457:Y *106:14 41.77 
2 *106:14 *458:B1 38 
*END

*D_NET *107 0.00186514
*CONN
*I *463:B1 I *D sky130_fd_sc_hd__a211o_1
*I *458:X O *D sky130_fd_sc_hd__a31o_1
*CAP
1 *463:B1 0
2 *458:X 0.000496451
3 *107:10 0.000496451
4 *107:10 *463:C1 2.58278e-05
5 *458:A2 *107:10 7.64059e-06
6 *458:A3 *107:10 1.35999e-05
7 *97:27 *107:10 0.000158796
8 *98:33 *107:10 0.000243605
9 *100:10 *107:10 0.000143186
10 *103:6 *107:10 5.58003e-05
11 *103:25 *107:10 0.000138747
12 *106:14 *107:10 8.50366e-05
*RES
1 *458:X *107:10 49.8071 
2 *107:10 *463:B1 38 
*END

*D_NET *108 0.00128006
*CONN
*I *460:A I *D sky130_fd_sc_hd__clkbuf_2
*I *459:X O *D sky130_fd_sc_hd__and3b_1
*CAP
1 *460:A 0
2 *459:X 0.00046834
3 *108:10 0.00046834
4 *108:10 *439:B 1.46286e-05
5 *108:10 *459:C 0.000123693
6 *108:10 *155:57 1.12487e-05
7 *108:10 *156:82 0.000108681
8 *93:14 *108:10 8.51329e-05
*RES
1 *459:X *108:10 46.0786 
2 *108:10 *460:A 38 
*END

*D_NET *109 0.0128619
*CONN
*I *489:B1 I *D sky130_fd_sc_hd__a32o_1
*I *472:B1 I *D sky130_fd_sc_hd__a2bb2o_1
*I *461:B1 I *D sky130_fd_sc_hd__a2bb2o_1
*I *536:A2 I *D sky130_fd_sc_hd__a2111oi_1
*I *521:A2 I *D sky130_fd_sc_hd__a211o_1
*I *496:B1 I *D sky130_fd_sc_hd__a221o_1
*I *546:A2 I *D sky130_fd_sc_hd__a22oi_1
*I *460:X O *D sky130_fd_sc_hd__clkbuf_2
*CAP
1 *489:B1 1.2545e-05
2 *472:B1 8.03797e-05
3 *461:B1 0.000329307
4 *536:A2 0.000407462
5 *521:A2 0
6 *496:B1 0
7 *546:A2 6.39928e-06
8 *460:X 0.000124565
9 *109:78 0.000912815
10 *109:61 0.000945654
11 *109:57 0.000632786
12 *109:43 0.000228689
13 *109:33 0.000265814
14 *109:31 0.00115565
15 *109:18 0.000366631
16 *109:10 0.00101815
17 *461:B1 *461:B2 3.41998e-06
18 *461:B1 *533:A3 5.50106e-05
19 *461:B1 *157:54 0.000120712
20 *461:B1 *158:33 7.83057e-05
21 *461:B1 *173:37 5.67058e-05
22 *461:B1 *175:65 0.000632277
23 *472:B1 *462:A1 4.68377e-05
24 *472:B1 *157:54 7.59537e-05
25 *472:B1 *168:81 0.000138859
26 *472:B1 *175:65 3.76421e-05
27 *489:B1 *149:31 2.39868e-05
28 *536:A2 *152:51 0.000111276
29 *536:A2 *170:51 0.000205001
30 *536:A2 *172:76 5.50106e-05
31 *546:A2 *546:A1 1.46586e-05
32 *109:10 *174:36 5.79559e-05
33 *109:18 *546:A1 5.3304e-05
34 *109:18 *152:59 7.53303e-06
35 *109:18 *170:14 5.94125e-05
36 *109:31 *172:49 7.90099e-05
37 *109:31 *172:57 2.56281e-05
38 *109:33 *521:A1 1.12349e-05
39 *109:43 *496:A1 9.92345e-05
40 *109:43 *141:10 7.51453e-06
41 *109:43 *170:16 6.72566e-05
42 *109:43 *170:29 3.04031e-05
43 *109:43 *172:49 0.000274893
44 *109:57 *488:B2 0.000164025
45 *109:57 *521:A1 8.06993e-05
46 *109:57 *141:10 6.58415e-06
47 *109:57 *149:31 1.17686e-05
48 *109:57 *170:45 0.000312637
49 *109:57 *171:66 5.00237e-05
50 *109:61 *170:51 3.91688e-05
51 *109:78 *118:18 0.000294503
52 *109:78 *132:14 8.76002e-05
53 *473:B1 *536:A2 3.58747e-05
54 *473:B1 *109:61 4.74882e-05
55 *488:B1 *109:57 0.000186041
56 *546:B1 *546:A2 1.46586e-05
57 *546:B1 *109:18 6.41207e-05
58 *546:B2 *109:18 0.000152913
59 *48:10 *109:31 2.40392e-05
60 *51:10 *109:43 0.000137682
61 *65:8 *536:A2 9.84851e-05
62 *65:18 *109:57 3.32832e-05
63 *74:10 *109:31 6.75596e-05
64 *79:8 *536:A2 0.0001449
65 *80:64 *109:57 1.75562e-05
66 *84:31 *536:A2 0.000286306
67 *84:59 *536:A2 0.000304622
68 *89:27 *109:43 2.83509e-05
69 *89:27 *109:57 0.000223906
70 *89:40 *109:57 0.000574262
71 *89:56 *536:A2 2.81041e-05
72 *89:135 *109:57 0.000123723
73 *94:10 *109:18 6.38845e-05
74 *105:10 *461:B1 3.88629e-05
75 *105:24 *109:31 0.000134767
76 *105:44 *461:B1 5.6662e-05
77 *105:44 *472:B1 1.09917e-05
*RES
1 *460:X *109:10 39.8229 
2 *109:10 *109:18 35.7586 
3 *109:18 *546:A2 38.1709 
4 *109:10 *109:31 23.9486 
5 *109:31 *109:33 0.849286 
6 *109:33 *109:43 35.8829 
7 *109:43 *496:B1 23 
8 *109:33 *521:A2 23 
9 *109:31 *109:57 15.2871 
10 *109:57 *109:61 15.6732 
11 *109:61 *536:A2 47.8704 
12 *109:61 *109:78 17.2581 
13 *109:78 *461:B1 47.3939 
14 *109:78 *472:B1 40.2475 
15 *109:57 *489:B1 23.2796 
*END

*D_NET *110 0.00182764
*CONN
*I *462:C1 I *D sky130_fd_sc_hd__a221o_1
*I *461:X O *D sky130_fd_sc_hd__a2bb2o_1
*CAP
1 *462:C1 0
2 *461:X 0.000579295
3 *110:12 0.000579295
4 *110:12 *149:14 0.000160797
5 *110:12 *157:38 9.11348e-06
6 *110:12 *157:42 8.36198e-05
7 *110:12 *157:75 0.000308174
8 *110:12 *158:33 8.36198e-05
9 *87:79 *110:12 3.36312e-06
10 *102:50 *110:12 2.03589e-05
*RES
1 *461:X *110:12 48.0879 
2 *110:12 *462:C1 38 
*END

*D_NET *111 0.00200267
*CONN
*I *463:C1 I *D sky130_fd_sc_hd__a211o_1
*I *462:X O *D sky130_fd_sc_hd__a221o_1
*CAP
1 *463:C1 0.000179844
2 *462:X 0.000448089
3 *111:12 0.000627933
4 *463:C1 *157:38 0
5 *463:C1 *160:16 0
6 *111:12 *157:38 0.000276757
7 *462:B2 *111:12 5.79559e-05
8 *463:A1 *463:C1 9.77405e-05
9 *463:A2 *463:C1 5.56279e-05
10 *97:27 *463:C1 7.19751e-05
11 *99:10 *463:C1 0.000160915
12 *107:10 *463:C1 2.58278e-05
*RES
1 *462:X *111:12 47.5596 
2 *111:12 *463:C1 42.5882 
*END

*D_NET *112 0.00283444
*CONN
*I *469:A I *D sky130_fd_sc_hd__or2_1
*I *482:A I *D sky130_fd_sc_hd__nor2_1
*I *468:A I *D sky130_fd_sc_hd__nand2_1
*I *464:Y O *D sky130_fd_sc_hd__a21oi_1
*CAP
1 *469:A 5.8125e-05
2 *482:A 7.93008e-05
3 *468:A 0.000130798
4 *464:Y 0.000181328
5 *112:25 0.000270385
6 *112:10 0.000445085
7 *469:A *469:B 5.3304e-05
8 *469:A *475:A3 0.000128497
9 *482:A *469:B 0.000263284
10 *482:A *475:A2 1.47394e-05
11 *482:A *475:A3 0.000100311
12 *482:A *115:21 5.5792e-05
13 *482:A *122:14 9.89901e-05
14 *112:10 *157:10 0.000227497
15 *112:10 *160:16 0.000225275
16 *112:25 *575:A 7.35277e-05
17 *112:25 *157:10 0.000209775
18 *112:25 *160:16 0.000193733
19 *92:92 *482:A 2.46906e-05
*RES
1 *464:Y *112:10 42.5364 
2 *112:10 *468:A 40.0714 
3 *112:10 *112:25 18.6664 
4 *112:25 *482:A 26.48 
5 *112:25 *469:A 24.5743 
*END

*D_NET *113 0.00141433
*CONN
*I *466:B I *D sky130_fd_sc_hd__xnor2_1
*I *476:B1 I *D sky130_fd_sc_hd__a21o_1
*I *465:X O *D sky130_fd_sc_hd__o21a_1
*CAP
1 *466:B 0
2 *476:B1 0.000214576
3 *465:X 0
4 *113:19 0.000228365
5 *113:4 0.000442941
6 *113:19 *148:20 0.000285154
7 *113:19 *168:20 0.000184362
8 *94:55 *476:B1 1.39317e-05
9 *94:72 *476:B1 2.19677e-05
10 *94:79 *476:B1 2.30292e-05
*RES
1 *465:X *113:4 23 
2 *113:4 *476:B1 26.2521 
3 *113:4 *113:19 37.54 
4 *113:19 *466:B 23 
*END

*D_NET *114 0.000917756
*CONN
*I *467:B I *D sky130_fd_sc_hd__xnor2_1
*I *481:B I *D sky130_fd_sc_hd__and2_1
*I *466:Y O *D sky130_fd_sc_hd__xnor2_1
*CAP
1 *467:B 8.74463e-05
2 *481:B 6.36579e-05
3 *466:Y 0.000160813
4 *114:12 0.000151104
5 *114:10 0.000160813
6 *467:B *467:A 9.79925e-05
7 *114:10 *148:14 2.95423e-05
8 *114:10 *168:14 2.53488e-05
9 *114:10 *168:20 0.000141038
*RES
1 *466:Y *114:10 40.8793 
2 *114:10 *114:12 15 
3 *114:12 *481:B 24.1186 
4 *114:12 *467:B 24.5743 
*END

*D_NET *115 0.00192175
*CONN
*I *469:B I *D sky130_fd_sc_hd__or2_1
*I *468:B I *D sky130_fd_sc_hd__nand2_1
*I *482:B I *D sky130_fd_sc_hd__nor2_1
*I *467:Y O *D sky130_fd_sc_hd__xnor2_1
*CAP
1 *469:B 0.000165323
2 *468:B 0
3 *482:B 0
4 *467:Y 0.000100017
5 *115:29 0.000210019
6 *115:21 0.000480603
7 *115:12 0.000145953
8 *115:8 0.00014071
9 *115:12 *129:10 5.76359e-05
10 *115:21 *475:A2 6.63159e-06
11 *115:21 *122:14 2.19403e-05
12 *115:29 *116:10 1.83408e-05
13 *115:29 *122:14 1.16455e-05
14 *115:29 *157:10 0
15 *469:A *469:B 5.3304e-05
16 *482:A *469:B 0.000263284
17 *482:A *115:21 5.5792e-05
18 *92:92 *115:29 0.000190549
*RES
1 *467:Y *115:8 39.9057 
2 *115:8 *115:12 16.0979 
3 *115:12 *482:B 23 
4 *115:12 *115:21 2.07143 
5 *115:21 *115:29 34.2879 
6 *115:29 *468:B 23 
7 *115:21 *469:B 26.48 
*END

*D_NET *116 0.00157488
*CONN
*I *475:A2 I *D sky130_fd_sc_hd__a31o_1
*I *468:Y O *D sky130_fd_sc_hd__nand2_1
*CAP
1 *475:A2 0.000297715
2 *468:Y 0.000324212
3 *116:10 0.000621927
4 *475:A2 *122:14 2.02872e-05
5 *475:A2 *129:10 5.58003e-05
6 *116:10 *122:14 3.6608e-05
7 *482:A *475:A2 1.47394e-05
8 *92:92 *475:A2 0.000178621
9 *115:21 *475:A2 6.63159e-06
10 *115:29 *116:10 1.83408e-05
*RES
1 *468:Y *116:10 42.205 
2 *116:10 *475:A2 42.3293 
*END

*D_NET *117 0.000712244
*CONN
*I *475:A3 I *D sky130_fd_sc_hd__a31o_1
*I *469:X O *D sky130_fd_sc_hd__or2_1
*CAP
1 *475:A3 0.000106385
2 *469:X 0.000106385
3 *475:A3 *157:8 0.000270667
4 *469:A *475:A3 0.000128497
5 *482:A *475:A3 0.000100311
*RES
1 *469:X *475:A3 49.48 
*END

*D_NET *118 0.0019214
*CONN
*I *471:B2 I *D sky130_fd_sc_hd__o22a_1
*I *470:Y O *D sky130_fd_sc_hd__a21oi_1
*CAP
1 *471:B2 6.97058e-05
2 *470:Y 0.000501763
3 *118:18 0.000571469
4 *471:B2 *158:33 0.00011858
5 *471:B2 *168:81 0.000119389
6 *118:18 *470:A2 2.33476e-05
7 *118:18 *148:59 0.000126679
8 *118:18 *149:31 1.49865e-05
9 *118:18 *168:32 9.08709e-06
10 *80:64 *118:18 1.35999e-05
11 *84:71 *118:18 5.82853e-05
12 *109:78 *118:18 0.000294503
*RES
1 *470:Y *118:18 48.9721 
2 *118:18 *471:B2 47.7296 
*END

*D_NET *119 0.000744185
*CONN
*I *474:A I *D sky130_fd_sc_hd__or3_1
*I *471:X O *D sky130_fd_sc_hd__o22a_1
*CAP
1 *474:A 0
2 *471:X 0.00017065
3 *119:10 0.00017065
4 *119:10 *552:A 3.70187e-05
5 *119:10 *163:12 0.000141879
6 *119:10 *175:65 0.000169674
7 *471:B1 *119:10 4.91172e-06
8 *87:69 *119:10 4.94011e-05
*RES
1 *471:X *119:10 41.8321 
2 *119:10 *474:A 38 
*END

*D_NET *120 0.000808842
*CONN
*I *474:B I *D sky130_fd_sc_hd__or3_1
*I *472:X O *D sky130_fd_sc_hd__a2bb2o_1
*CAP
1 *474:B 0
2 *472:X 0.000193011
3 *120:8 0.000193011
4 *120:8 *470:A2 3.56796e-05
5 *120:8 *121:10 8.62876e-05
6 *120:8 *148:59 1.11411e-05
7 *120:8 *163:12 0.000289713
8 *120:8 *168:20 0
*RES
1 *472:X *120:8 42.0186 
2 *120:8 *474:B 38 
*END

*D_NET *121 0.00059012
*CONN
*I *474:C I *D sky130_fd_sc_hd__or3_1
*I *473:X O *D sky130_fd_sc_hd__a32o_1
*CAP
1 *474:C 2.95011e-05
2 *473:X 0.000148265
3 *121:10 0.000177766
4 *474:C *163:6 5.50106e-05
5 *121:10 *552:A 1.12487e-05
6 *121:10 *163:12 2.70366e-05
7 *121:10 *168:20 0
8 *87:69 *121:10 5.50049e-05
9 *120:8 *121:10 8.62876e-05
*RES
1 *473:X *121:10 40.8793 
2 *121:10 *474:C 38.6214 
*END

*D_NET *122 0.00293928
*CONN
*I *475:B1 I *D sky130_fd_sc_hd__a31o_1
*I *474:X O *D sky130_fd_sc_hd__or3_1
*CAP
1 *475:B1 0
2 *474:X 3.83793e-05
3 *122:14 0.000671454
4 *122:8 0.000709833
5 *122:8 *581:A 5.67058e-05
6 *122:14 *147:51 0
7 *122:14 *157:38 0
8 *122:14 *158:33 7.03766e-05
9 *122:14 *168:20 0
10 *122:14 *175:65 0.000174417
11 *475:A2 *122:14 2.02872e-05
12 *482:A *122:14 9.89901e-05
13 *92:92 *122:14 0.000978086
14 *96:8 *122:14 5.05552e-05
15 *115:21 *122:14 2.19403e-05
16 *115:29 *122:14 1.16455e-05
17 *116:10 *122:14 3.6608e-05
*RES
1 *474:X *122:8 38.6214 
2 *122:8 *122:14 32.5657 
3 *122:14 *475:B1 23 
*END

*D_NET *123 0.000760457
*CONN
*I *477:B I *D sky130_fd_sc_hd__xnor2_1
*I *476:X O *D sky130_fd_sc_hd__a21o_1
*CAP
1 *477:B 0
2 *476:X 0.000206468
3 *123:10 0.000206468
4 *123:10 *131:12 0.000141879
5 *123:10 *144:12 6.15314e-05
6 *123:10 *170:92 0.00014411
*RES
1 *476:X *123:10 41.9564 
2 *123:10 *477:B 38 
*END

*D_NET *124 0.00179273
*CONN
*I *479:B I *D sky130_fd_sc_hd__or2_1
*I *502:A2 I *D sky130_fd_sc_hd__a21o_1
*I *478:B I *D sky130_fd_sc_hd__nand2_1
*I *477:Y O *D sky130_fd_sc_hd__xnor2_1
*CAP
1 *479:B 0.000106794
2 *502:A2 4.97935e-05
3 *478:B 4.24211e-05
4 *477:Y 9.03302e-05
5 *124:21 0.000314529
6 *124:8 0.000290692
7 *479:B *479:A 0.000128915
8 *479:B *484:A 0.000223085
9 *479:B *502:A1 9.41704e-05
10 *479:B *129:14 2.46387e-05
11 *479:B *170:94 8.17328e-05
12 *502:A2 *502:A1 0.000100477
13 *502:A2 *129:14 3.46216e-05
14 *124:8 *162:19 4.31263e-05
15 *124:8 *170:113 4.6318e-06
16 *124:21 *129:22 0
17 *124:21 *130:8 6.437e-05
18 *124:21 *170:113 9.84053e-05
*RES
1 *477:Y *124:8 39.9057 
2 *124:8 *478:B 38.6214 
3 *124:8 *124:21 18.6664 
4 *124:21 *502:A2 24.595 
5 *124:21 *479:B 26.48 
*END

*D_NET *125 0.000321567
*CONN
*I *480:A I *D sky130_fd_sc_hd__nand2_1
*I *478:Y O *D sky130_fd_sc_hd__nand2_1
*CAP
1 *480:A 0.000146995
2 *478:Y 0.000146995
3 *480:A *127:10 5.15138e-06
4 *480:A *170:113 2.2426e-05
*RES
1 *478:Y *480:A 48.7136 
*END

*D_NET *126 0.00382916
*CONN
*I *480:B I *D sky130_fd_sc_hd__nand2_1
*I *503:B1 I *D sky130_fd_sc_hd__o21ai_1
*I *513:C1 I *D sky130_fd_sc_hd__o211ai_2
*I *479:X O *D sky130_fd_sc_hd__or2_1
*CAP
1 *480:B 0
2 *503:B1 0
3 *513:C1 0.000193104
4 *479:X 0
5 *126:34 0.000235456
6 *126:21 8.70593e-05
7 *126:6 0.00110419
8 *126:4 0.00105948
9 *126:6 *129:10 0.000223728
10 *126:6 *129:14 0.000576755
11 *126:34 *127:10 5.66182e-05
12 *126:34 *131:12 0
13 *126:34 *148:20 8.04385e-05
14 *32:14 *513:C1 3.29613e-05
15 *33:8 *126:6 2.71358e-05
16 *34:14 *126:21 1.85903e-05
17 *35:16 *126:21 0.000133649
*RES
1 *479:X *126:4 23 
2 *126:4 *126:6 11.5793 
3 *126:6 *513:C1 25.5479 
4 *126:6 *126:21 31.9057 
5 *126:21 *503:B1 23 
6 *126:4 *126:34 34.785 
7 *126:34 *480:B 23 
*END

*D_NET *127 0.00123149
*CONN
*I *484:A I *D sky130_fd_sc_hd__xnor2_1
*I *480:Y O *D sky130_fd_sc_hd__nand2_1
*CAP
1 *484:A 0.000100308
2 *480:Y 0.000240749
3 *127:10 0.000341057
4 *484:A *479:A 2.193e-05
5 *484:A *129:10 0.000122416
6 *484:A *129:14 6.25147e-05
7 *127:10 *129:40 8.0612e-06
8 *127:10 *131:12 4.96024e-05
9 *479:B *484:A 0.000223085
10 *480:A *127:10 5.15138e-06
11 *126:34 *127:10 5.66182e-05
*RES
1 *480:Y *127:10 41.8321 
2 *127:10 *484:A 41.0036 
*END

*D_NET *128 0.00135904
*CONN
*I *483:A I *D sky130_fd_sc_hd__or2_1
*I *502:B1 I *D sky130_fd_sc_hd__a21o_1
*I *481:X O *D sky130_fd_sc_hd__and2_1
*CAP
1 *483:A 0
2 *502:B1 0
3 *481:X 0.000288705
4 *128:16 0.000374503
5 *128:6 0.000663207
6 *128:16 *129:14 3.26241e-05
*RES
1 *481:X *128:6 28.3857 
2 *128:6 *128:16 36.7114 
3 *128:16 *502:B1 23 
4 *128:6 *483:A 23 
*END

*D_NET *129 0.00376016
*CONN
*I *483:B I *D sky130_fd_sc_hd__or2_1
*I *513:A1 I *D sky130_fd_sc_hd__o211ai_2
*I *503:A1 I *D sky130_fd_sc_hd__o21ai_1
*I *482:Y O *D sky130_fd_sc_hd__nor2_1
*CAP
1 *483:B 0
2 *513:A1 3.60149e-05
3 *503:A1 0
4 *482:Y 0.000506821
5 *129:40 0.000134867
6 *129:22 0.000199054
7 *129:14 0.000429707
8 *129:10 0.000836326
9 *129:10 *479:A 9.98069e-06
10 *129:10 *148:14 0.00014064
11 *129:10 *148:20 2.95526e-05
12 *129:14 *502:A1 1.09834e-05
13 *129:22 *172:10 6.39204e-05
14 *129:22 *172:18 7.53384e-06
15 *129:40 *162:19 4.84369e-05
16 *129:40 *170:92 8.57485e-05
17 *475:A2 *129:10 5.58003e-05
18 *479:B *129:14 2.46387e-05
19 *484:A *129:10 0.000122416
20 *484:A *129:14 6.25147e-05
21 *502:A2 *129:14 3.46216e-05
22 *33:8 *513:A1 3.28357e-06
23 *33:8 *129:14 1.84917e-05
24 *115:12 *129:10 5.76359e-05
25 *124:21 *129:22 0
26 *126:6 *129:10 0.000223728
27 *126:6 *129:14 0.000576755
28 *127:10 *129:40 8.0612e-06
29 *128:16 *129:14 3.26241e-05
*RES
1 *482:Y *129:10 34.2686 
2 *129:10 *129:14 6.83571 
3 *129:14 *129:22 33.7079 
4 *129:22 *503:A1 23 
5 *129:14 *513:A1 23.8493 
6 *129:10 *129:40 32.61 
7 *129:40 *483:B 23 
*END

*D_NET *130 0.000359051
*CONN
*I *484:B I *D sky130_fd_sc_hd__xnor2_1
*I *483:X O *D sky130_fd_sc_hd__or2_1
*CAP
1 *484:B 0
2 *483:X 8.56738e-05
3 *130:8 8.56738e-05
4 *130:8 *162:19 3.44543e-05
5 *130:8 *170:113 8.88793e-05
6 *124:21 *130:8 6.437e-05
*RES
1 *483:X *130:8 40.2579 
2 *130:8 *484:B 38 
*END

*D_NET *131 0.00210879
*CONN
*I *491:A2 I *D sky130_fd_sc_hd__o22a_1
*I *484:Y O *D sky130_fd_sc_hd__xnor2_1
*CAP
1 *491:A2 0
2 *484:Y 0
3 *131:12 0.000540335
4 *131:6 0.000540335
5 *131:12 *477:A 0.000217917
6 *131:12 *552:B 9.8971e-06
7 *131:12 *148:20 0
8 *131:12 *170:92 0.000459106
9 *491:A1 *131:12 1.32314e-05
10 *551:C *131:12 0.000136486
11 *123:10 *131:12 0.000141879
12 *126:34 *131:12 0
13 *127:10 *131:12 4.96024e-05
*RES
1 *484:Y *131:6 38 
2 *131:6 *131:12 28.4436 
3 *131:12 *491:A2 23 
*END

*D_NET *132 0.00183768
*CONN
*I *487:A2 I *D sky130_fd_sc_hd__a31o_1
*I *485:Y O *D sky130_fd_sc_hd__nand2_1
*CAP
1 *487:A2 0.000131187
2 *485:Y 0.000665358
3 *132:14 0.000796545
4 *487:A2 *133:25 2.26406e-05
5 *132:14 *485:B 2.81066e-05
6 *132:14 *149:14 1.84917e-05
7 *132:14 *149:31 2.05503e-05
8 *487:B1 *487:A2 5.91337e-05
9 *102:42 *132:14 8.06804e-06
10 *109:78 *132:14 8.76002e-05
*RES
1 *485:Y *132:14 49.3723 
2 *132:14 *487:A2 48.5634 
*END

*D_NET *133 0.00165773
*CONN
*I *487:A3 I *D sky130_fd_sc_hd__a31o_1
*I *490:A2 I *D sky130_fd_sc_hd__a211o_1
*I *486:X O *D sky130_fd_sc_hd__or2_1
*CAP
1 *487:A3 0
2 *490:A2 0
3 *486:X 4.09885e-05
4 *133:25 0.000221876
5 *133:14 0.000192726
6 *133:6 0.000455591
7 *133:6 *170:70 5.3304e-05
8 *133:14 *134:10 6.33771e-05
9 *133:14 *170:31 1.29944e-05
10 *133:14 *170:35 1.51481e-05
11 *133:14 *170:70 9.41704e-05
12 *133:25 *135:10 8.36198e-05
13 *133:25 *136:8 8.36198e-05
14 *133:25 *149:37 1.07299e-05
15 *133:25 *169:76 4.16051e-06
16 *133:25 *170:35 2.46399e-05
17 *487:A2 *133:25 2.26406e-05
18 *65:18 *133:25 0.000212487
19 *87:52 *133:14 5.58003e-05
20 *87:69 *133:14 9.8592e-06
*RES
1 *486:X *133:6 23.6214 
2 *133:6 *133:14 32.9 
3 *133:14 *490:A2 23 
4 *133:6 *133:25 34.7229 
5 *133:25 *487:A3 23 
*END

*D_NET *134 0.00190267
*CONN
*I *491:B1 I *D sky130_fd_sc_hd__o22a_1
*I *487:X O *D sky130_fd_sc_hd__a31o_1
*CAP
1 *491:B1 0
2 *487:X 0.000607003
3 *134:10 0.000607003
4 *134:10 *137:10 0.000345304
5 *134:10 *170:31 1.74918e-05
6 *134:10 *170:35 3.05796e-05
7 *134:10 *170:92 3.95159e-06
8 *487:B1 *134:10 5.33272e-05
9 *89:44 *134:10 8.57485e-05
10 *89:135 *134:10 8.88885e-05
11 *92:38 *134:10 0
12 *92:61 *134:10 0
13 *133:14 *134:10 6.33771e-05
*RES
1 *487:X *134:10 49.9314 
2 *134:10 *491:B1 38 
*END

*D_NET *135 0.000541077
*CONN
*I *490:B1 I *D sky130_fd_sc_hd__a211o_1
*I *488:X O *D sky130_fd_sc_hd__a2bb2o_1
*CAP
1 *490:B1 0
2 *488:X 0.000115472
3 *135:10 0.000115472
4 *135:10 *136:8 2.37243e-05
5 *135:10 *170:31 3.67392e-05
6 *135:10 *170:35 0.000110258
7 *65:18 *135:10 5.5792e-05
8 *133:25 *135:10 8.36198e-05
*RES
1 *488:X *135:10 40.5271 
2 *135:10 *490:B1 38 
*END

*D_NET *136 0.000524286
*CONN
*I *490:C1 I *D sky130_fd_sc_hd__a211o_1
*I *489:X O *D sky130_fd_sc_hd__a32o_1
*CAP
1 *490:C1 1.51572e-05
2 *489:X 7.01381e-05
3 *136:8 8.52953e-05
4 *490:C1 *170:70 5.5792e-05
5 *136:8 *149:37 8.57485e-05
6 *136:8 *149:50 4.90185e-05
7 *87:69 *490:C1 5.5792e-05
8 *133:25 *136:8 8.36198e-05
9 *135:10 *136:8 2.37243e-05
*RES
1 *489:X *136:8 39.9057 
2 *136:8 *490:C1 38.6214 
*END

*D_NET *137 0.00107566
*CONN
*I *491:B2 I *D sky130_fd_sc_hd__o22a_1
*I *490:X O *D sky130_fd_sc_hd__a211o_1
*CAP
1 *491:B2 0
2 *490:X 0.000232685
3 *137:10 0.000232685
4 *137:10 *170:29 9.75779e-05
5 *137:10 *170:92 0.000167412
6 *134:10 *137:10 0.000345304
*RES
1 *490:X *137:10 43.8207 
2 *137:10 *491:B2 38 
*END

*D_NET *138 0.000553943
*CONN
*I *493:B2 I *D sky130_fd_sc_hd__o22a_1
*I *492:Y O *D sky130_fd_sc_hd__a21oi_1
*CAP
1 *493:B2 9.4453e-05
2 *492:Y 9.4453e-05
3 *493:B2 *494:A2 0.000110062
4 *493:B2 *150:23 9.64943e-05
5 *493:B2 *171:36 0.000139692
6 *79:35 *493:B2 1.8788e-05
*RES
1 *492:Y *493:B2 48.9 
*END

*D_NET *139 0.000725498
*CONN
*I *505:A1 I *D sky130_fd_sc_hd__o32a_1
*I *493:X O *D sky130_fd_sc_hd__o22a_1
*CAP
1 *505:A1 0
2 *493:X 0.000167567
3 *139:12 0.000167567
4 *139:12 *494:A2 1.03955e-05
5 *139:12 *140:10 0.000168251
6 *139:12 *142:10 1.69668e-05
7 *139:12 *171:60 7.97587e-05
8 *494:A3 *139:12 1.32314e-05
9 *79:35 *139:12 0.000101762
*RES
1 *493:X *139:12 42.3293 
2 *139:12 *505:A1 38 
*END

*D_NET *140 0.000402956
*CONN
*I *505:A2 I *D sky130_fd_sc_hd__o32a_1
*I *494:X O *D sky130_fd_sc_hd__a31o_1
*CAP
1 *505:A2 0
2 *494:X 0.000103434
3 *140:10 0.000103434
4 *79:41 *140:10 2.78373e-05
5 *139:12 *140:10 0.000168251
*RES
1 *494:X *140:10 40.175 
2 *140:10 *505:A2 38 
*END

*D_NET *141 0.00101284
*CONN
*I *496:C1 I *D sky130_fd_sc_hd__a221o_1
*I *495:Y O *D sky130_fd_sc_hd__nor2_1
*CAP
1 *496:C1 0
2 *495:Y 0.000284932
3 *141:10 0.000284932
4 *141:10 *521:A1 0.000233359
5 *141:10 *172:39 6.07397e-05
6 *51:10 *141:10 0.000134776
7 *109:43 *141:10 7.51453e-06
8 *109:57 *141:10 6.58415e-06
*RES
1 *495:Y *141:10 42.9093 
2 *141:10 *496:C1 38 
*END

*D_NET *142 0.00203504
*CONN
*I *505:A3 I *D sky130_fd_sc_hd__o32a_1
*I *496:X O *D sky130_fd_sc_hd__a221o_1
*CAP
1 *505:A3 0.000133045
2 *496:X 0.000421972
3 *142:10 0.000555016
4 *505:A3 *162:6 5.50049e-05
5 *505:A3 *171:60 6.9908e-05
6 *142:10 *161:10 0
7 *142:10 *170:29 0.000138444
8 *142:10 *171:60 0.000133049
9 *142:10 *171:64 0.000338973
10 *83:10 *142:10 0.000172667
11 *139:12 *142:10 1.69668e-05
*RES
1 *496:X *142:10 47.1143 
2 *142:10 *505:A3 40.5271 
*END

*D_NET *143 0.000885729
*CONN
*I *512:A I *D sky130_fd_sc_hd__or2_1
*I *500:A I *D sky130_fd_sc_hd__xnor2_1
*I *497:Y O *D sky130_fd_sc_hd__inv_2
*CAP
1 *512:A 0
2 *500:A 6.68674e-05
3 *497:Y 3.47922e-05
4 *143:19 9.77729e-05
5 *143:6 0.000199432
6 *500:A *580:A 0.000189848
7 *143:6 *580:A 4.08664e-05
8 *143:19 *165:18 0.000140875
9 *143:19 *171:10 2.35118e-06
10 *31:10 *500:A 1.24376e-05
11 *31:10 *143:6 0.000100486
*RES
1 *497:Y *143:6 24.0979 
2 *143:6 *500:A 25.0507 
3 *143:6 *143:19 32.2579 
4 *143:19 *512:A 23 
*END

*D_NET *144 0.00539291
*CONN
*I *507:B1 I *D sky130_fd_sc_hd__a21o_1
*I *499:B I *D sky130_fd_sc_hd__xor2_1
*I *498:X O *D sky130_fd_sc_hd__o41a_1
*CAP
1 *507:B1 0
2 *499:B 0.000165641
3 *498:X 7.29492e-05
4 *144:29 0.000130176
5 *144:12 0.00132125
6 *144:8 0.00109838
7 *144:8 *477:A 0.000138718
8 *144:29 *507:A1 5.90675e-06
9 *144:29 *151:21 4.3407e-05
10 *57:8 *144:29 0
11 *94:55 *144:12 0.0022914
12 *94:55 *144:29 2.79004e-05
13 *94:63 *144:8 3.56537e-05
14 *123:10 *144:12 6.15314e-05
*RES
1 *498:X *144:8 39.9057 
2 *144:8 *144:12 41.825 
3 *144:12 *499:B 25.5479 
4 *144:12 *144:29 32.755 
5 *144:29 *507:B1 23 
*END

*D_NET *145 0.00181609
*CONN
*I *500:B I *D sky130_fd_sc_hd__xnor2_1
*I *512:B I *D sky130_fd_sc_hd__or2_1
*I *499:X O *D sky130_fd_sc_hd__xor2_1
*CAP
1 *500:B 0.00021978
2 *512:B 0.00016478
3 *499:X 0.000390126
4 *145:8 0.000774687
5 *500:B *580:A 7.95762e-05
6 *145:8 *151:8 0
7 *145:8 *151:21 0.000177925
8 *145:8 *165:18 0
9 *508:B *145:8 9.21347e-06
10 *57:8 *145:8 0
*RES
1 *499:X *145:8 45.8921 
2 *145:8 *512:B 41.0036 
3 *145:8 *500:B 42.5364 
*END

*D_NET *146 0.0104106
*CONN
*I *432:A2 I *D sky130_fd_sc_hd__a21oi_1
*I *440:A I *D sky130_fd_sc_hd__nor2_1
*I *435:A2 I *D sky130_fd_sc_hd__a32o_1
*I *438:A2 I *D sky130_fd_sc_hd__o21a_1
*I *461:B2 I *D sky130_fd_sc_hd__a2bb2o_1
*I *451:A I *D sky130_fd_sc_hd__or2b_1
*I *431:A2_N I *D sky130_fd_sc_hd__a2bb2o_1
*I *553:X O *D sky130_fd_sc_hd__clkbuf_2
*CAP
1 *432:A2 2.28037e-05
2 *440:A 0
3 *435:A2 0
4 *438:A2 0
5 *461:B2 0.000118514
6 *451:A 0.000384106
7 *431:A2_N 5.06619e-05
8 *553:X 0.000776407
9 *146:71 0.000109117
10 *146:63 0.00017586
11 *146:43 0.000594142
12 *146:39 0.000399327
13 *146:35 0.00047338
14 *146:18 0.00041394
15 *146:14 0.000468393
16 *146:8 0.00109104
17 *431:A2_N *156:12 1.1314e-05
18 *432:A2 *158:24 2.64616e-05
19 *451:A *451:B_N 8.06804e-06
20 *451:A *174:22 2.03764e-06
21 *461:B2 *158:33 0.00023889
22 *461:B2 *175:65 4.10755e-05
23 *146:8 *430:A 9.91101e-05
24 *146:8 *430:B 0.000244484
25 *146:8 *436:A_N 8.70038e-05
26 *146:8 *436:C 0.000358895
27 *146:8 *153:8 0.000279828
28 *146:8 *154:6 0.000661045
29 *146:8 *155:25 0.000231039
30 *146:8 *155:41 3.22879e-05
31 *146:8 *156:88 0.000232734
32 *146:8 *158:24 1.63927e-05
33 *146:14 *158:24 0.000319682
34 *146:18 *175:49 0.000188926
35 *146:35 *156:22 0.000130017
36 *146:35 *175:41 0
37 *146:35 *175:49 3.70187e-05
38 *146:39 *435:A3 0.000182826
39 *146:39 *156:22 1.24376e-05
40 *146:39 *175:41 4.39725e-05
41 *146:43 *158:33 0.000185755
42 *146:63 *435:A3 5.3304e-05
43 *146:63 *175:31 2.02872e-05
44 *146:71 *156:12 5.56356e-05
45 *146:71 *158:33 0.000111852
46 *146:71 *175:14 4.2812e-06
47 *146:71 *175:27 6.54906e-05
48 result[0] *146:8 0.000148688
49 *432:B1 *432:A2 4.17736e-05
50 *432:B1 *146:14 0.00010018
51 *438:B1 *146:71 1.52045e-05
52 *440:B *146:35 5.50106e-05
53 *440:B *146:39 8.53415e-05
54 *461:B1 *461:B2 3.41998e-06
55 *534:B1 *451:A 0.000141538
56 *534:B1 *146:43 4.95442e-05
57 *534:B2 *451:A 0.000100069
58 *18:9 *146:8 5.67058e-05
59 *80:52 *146:8 1.03836e-05
60 *80:64 *146:35 6.70827e-05
61 *84:45 *461:B2 7.79942e-05
62 *84:45 *146:43 8.62876e-05
63 *85:10 *146:39 9.5877e-05
64 *86:10 *146:8 0.000128401
65 *90:10 *146:39 5.50049e-05
66 *91:8 *146:71 3.22051e-05
*RES
1 *553:X *146:8 49.7214 
2 *146:8 *146:14 7.93357 
3 *146:14 *146:18 17.61 
4 *146:18 *431:A2_N 38.9995 
5 *146:18 *146:35 18.9357 
6 *146:35 *146:39 5.40643 
7 *146:39 *146:43 17.61 
8 *146:43 *451:A 42.9093 
9 *146:43 *461:B2 41.3143 
10 *146:39 *146:63 1.09786 
11 *146:63 *146:71 32.8793 
12 *146:71 *438:A2 23 
13 *146:63 *435:A2 23 
14 *146:35 *440:A 23 
15 *146:14 *432:A2 23.6214 
*END

*D_NET *147 0.00729307
*CONN
*I *454:B I *D sky130_fd_sc_hd__nand2_1
*I *455:B I *D sky130_fd_sc_hd__or2_1
*I *465:A2 I *D sky130_fd_sc_hd__o21a_1
*I *447:A_N I *D sky130_fd_sc_hd__nand3b_1
*I *498:A2 I *D sky130_fd_sc_hd__o41a_1
*I *446:B1_N I *D sky130_fd_sc_hd__a21bo_1
*I *554:X O *D sky130_fd_sc_hd__dlymetal6s2s_1
*CAP
1 *454:B 1.00407e-05
2 *455:B 0
3 *465:A2 0
4 *447:A_N 0
5 *498:A2 0.00011332
6 *446:B1_N 0
7 *554:X 0
8 *147:76 0.000203608
9 *147:66 0.000661234
10 *147:51 0.000157902
11 *147:27 0.000138996
12 *147:25 0.000368214
13 *147:16 0.0008049
14 *147:4 0.00106785
15 *454:B *454:A 1.9054e-05
16 *498:A2 *447:C 2.77232e-05
17 *498:A2 *498:A1 7.44257e-05
18 *498:A2 *175:77 6.6426e-05
19 *147:16 *160:16 0.000165593
20 *147:25 *175:69 1.76557e-05
21 *147:25 *175:77 9.24795e-06
22 *147:27 *447:C 1.14154e-05
23 *147:27 *498:A1 3.91386e-05
24 *147:51 *465:A1 0.000140958
25 *147:51 *175:77 1.14452e-05
26 *147:66 *454:A 2.33782e-05
27 *147:66 *174:10 0.000291331
28 *147:76 *454:A 2.64616e-05
29 zero *147:66 0.000185803
30 *446:A2 *147:16 0.000226018
31 *446:A2 *147:25 1.56762e-05
32 *447:B *147:25 2.43233e-05
33 *449:A2 *147:51 0
34 *452:A *147:16 1.12349e-05
35 *458:A2 *454:B 1.9054e-05
36 *463:A1 *147:16 0.00023538
37 *464:A2 *147:66 0.000272312
38 *554:A *147:66 1.34542e-05
39 *92:82 *498:A2 0.000119313
40 *94:93 *147:25 6.47194e-05
41 *94:93 *147:27 0
42 *94:93 *147:51 8.28302e-05
43 *95:10 *147:16 0.000146197
44 *97:12 *147:16 3.85802e-05
45 *98:10 *147:16 9.61498e-05
46 *98:33 *147:16 7.88293e-05
47 *100:10 *147:66 0.000838602
48 *100:10 *147:76 0.000218382
49 *102:65 *147:76 0.000102971
50 *103:6 *147:66 2.64616e-05
51 *103:6 *147:76 2.64616e-05
52 *122:14 *147:51 0
*RES
1 *554:X *147:4 23 
2 *147:4 *147:16 42.5736 
3 *147:16 *446:B1_N 23 
4 *147:16 *147:25 3.02429 
5 *147:25 *147:27 0.849286 
6 *147:27 *498:A2 26.5007 
7 *147:27 *447:A_N 23 
8 *147:25 *147:51 33.5007 
9 *147:51 *465:A2 23 
10 *147:4 *147:66 45.8257 
11 *147:66 *147:76 34.6814 
12 *147:76 *455:B 23 
13 *147:66 *454:B 23.4971 
*END

*D_NET *148 0.00710334
*CONN
*I *466:A I *D sky130_fd_sc_hd__xnor2_1
*I *476:A1 I *D sky130_fd_sc_hd__a21o_1
*I *498:A3 I *D sky130_fd_sc_hd__o41a_1
*I *473:A2 I *D sky130_fd_sc_hd__a32o_1
*I *471:A2 I *D sky130_fd_sc_hd__o22a_1
*I *470:A2 I *D sky130_fd_sc_hd__a21oi_1
*I *555:X O *D sky130_fd_sc_hd__clkbuf_2
*CAP
1 *466:A 0
2 *476:A1 0
3 *498:A3 3.37363e-05
4 *473:A2 0
5 *471:A2 0
6 *470:A2 0.000197729
7 *555:X 0.000427067
8 *148:59 0.000561601
9 *148:32 0.00075933
10 *148:30 0.000544809
11 *148:22 0.000692987
12 *148:20 0.000512788
13 *148:14 0.000522791
14 *148:10 0.000551511
15 *470:A2 *163:12 0
16 *470:A2 *168:20 1.13812e-05
17 *470:A2 *168:24 0.000137907
18 *470:A2 *168:43 5.58003e-05
19 *498:A3 *498:A4 6.17437e-06
20 *148:10 *168:14 7.52305e-05
21 *148:10 *168:20 8.91405e-05
22 *148:20 *477:A 0
23 *148:20 *168:20 0
24 *148:22 *168:20 0
25 *148:30 *473:A3 4.51175e-05
26 *148:30 *473:B2 0.000147656
27 *148:30 *477:A 0
28 *148:30 *149:50 0
29 *148:30 *165:33 8.16459e-05
30 *148:30 *168:20 0
31 *148:59 *158:33 2.33476e-05
32 *148:59 *168:20 3.78361e-05
33 *148:59 *168:81 2.93431e-05
34 *473:B1 *148:30 3.75177e-05
35 *491:A1 *148:30 0.000112906
36 *79:8 *148:30 0.000108672
37 *84:71 *470:A2 2.10502e-05
38 *87:69 *148:30 0.000318924
39 *89:85 *470:A2 1.74874e-06
40 *92:82 *498:A3 1.5769e-05
41 *94:63 *148:22 0.000157309
42 *94:63 *148:30 1.01436e-05
43 *105:44 *148:59 1.21972e-05
44 *113:19 *148:20 0.000285154
45 *114:10 *148:14 2.95423e-05
46 *118:18 *470:A2 2.33476e-05
47 *118:18 *148:59 0.000126679
48 *120:8 *470:A2 3.56796e-05
49 *120:8 *148:59 1.11411e-05
50 *126:34 *148:20 8.04385e-05
51 *129:10 *148:14 0.00014064
52 *129:10 *148:20 2.95526e-05
53 *131:12 *148:20 0
*RES
1 *555:X *148:10 45.25 
2 *148:10 *148:14 18.0036 
3 *148:14 *148:20 24.57 
4 *148:20 *148:22 2.61 
5 *148:22 *148:30 27.5736 
6 *148:30 *148:32 15 
7 *148:32 *470:A2 41.2314 
8 *148:32 *148:59 34.5898 
9 *148:59 *471:A2 23 
10 *148:30 *473:A2 23 
11 *148:22 *498:A3 38.6214 
12 *148:20 *476:A1 38 
13 *148:14 *466:A 23 
*END

*D_NET *149 0.010408
*CONN
*I *489:A2 I *D sky130_fd_sc_hd__a32o_1
*I *477:A I *D sky130_fd_sc_hd__xnor2_1
*I *498:A4 I *D sky130_fd_sc_hd__o41a_1
*I *486:B I *D sky130_fd_sc_hd__or2_1
*I *485:B I *D sky130_fd_sc_hd__nand2_1
*I *556:X O *D sky130_fd_sc_hd__clkbuf_2
*CAP
1 *489:A2 0
2 *477:A 0.000422153
3 *498:A4 7.19936e-05
4 *486:B 0.000133947
5 *485:B 4.90315e-05
6 *556:X 0.000249773
7 *149:50 0.000920513
8 *149:37 0.0006817
9 *149:31 0.000412244
10 *149:14 0.00145403
11 *149:8 0.00136391
12 *486:B *473:B2 5.08656e-05
13 *486:B *170:70 5.58003e-05
14 *149:8 *175:10 0.000100069
15 *149:14 *435:B2 6.85236e-05
16 *149:14 *451:B_N 0.000503851
17 *149:14 *455:A 5.5792e-05
18 *149:14 *152:45 0.000112446
19 *149:14 *157:44 2.2065e-05
20 *149:14 *157:54 9.06146e-05
21 *149:14 *157:75 2.12147e-05
22 *149:14 *158:33 0
23 *149:14 *175:10 0.000124829
24 *149:31 *168:32 6.71815e-05
25 *149:31 *169:76 0.000100486
26 *149:31 *170:45 4.1372e-05
27 *149:37 *169:76 9.00432e-05
28 *149:37 *170:45 5.62466e-05
29 *149:50 *170:31 0
30 *149:50 *170:92 0
31 *473:B1 *149:31 1.91184e-05
32 *489:B1 *149:31 2.39868e-05
33 *491:A1 *149:50 0.000108274
34 *498:A3 *498:A4 6.17437e-06
35 *17:11 *149:8 5.70419e-05
36 *78:8 *477:A 2.77955e-05
37 *78:8 *149:50 0.000187996
38 *79:8 *149:37 3.31053e-05
39 *79:8 *149:50 0.000144238
40 *80:64 *149:31 0.000219806
41 *84:71 *149:31 8.06804e-06
42 *89:85 *149:14 0.000234542
43 *89:85 *149:31 1.74126e-05
44 *92:82 *498:A4 0.000183733
45 *94:63 *477:A 9.33529e-06
46 *94:63 *498:A4 1.42605e-05
47 *102:42 *485:B 9.66668e-05
48 *102:42 *149:14 0.000904607
49 *102:50 *149:14 3.43144e-05
50 *109:57 *149:31 1.17686e-05
51 *110:12 *149:14 0.000160797
52 *118:18 *149:31 1.49865e-05
53 *131:12 *477:A 0.000217917
54 *132:14 *485:B 2.81066e-05
55 *132:14 *149:14 1.84917e-05
56 *132:14 *149:31 2.05503e-05
57 *133:25 *149:37 1.07299e-05
58 *136:8 *149:37 8.57485e-05
59 *136:8 *149:50 4.90185e-05
60 *144:8 *477:A 0.000138718
61 *148:20 *477:A 0
62 *148:30 *477:A 0
63 *148:30 *149:50 0
*RES
1 *556:X *149:8 42.4329 
2 *149:8 *149:14 41.4936 
3 *149:14 *485:B 24.0979 
4 *149:14 *149:31 36.3386 
5 *149:31 *149:37 17.6514 
6 *149:37 *486:B 40.0714 
7 *149:37 *149:50 8.94857 
8 *149:50 *498:A4 40.0507 
9 *149:50 *477:A 47.3007 
10 *149:31 *489:A2 23 
*END

*D_NET *150 0.00643039
*CONN
*I *499:A I *D sky130_fd_sc_hd__xor2_1
*I *507:A1 I *D sky130_fd_sc_hd__a21o_1
*I *494:A2 I *D sky130_fd_sc_hd__a31o_1
*I *493:A2 I *D sky130_fd_sc_hd__o22a_1
*I *492:A2 I *D sky130_fd_sc_hd__a21oi_1
*I *557:X O *D sky130_fd_sc_hd__clkbuf_2
*CAP
1 *499:A 9.0986e-05
2 *507:A1 0.000247244
3 *494:A2 0.000144384
4 *493:A2 0
5 *492:A2 1.72917e-05
6 *557:X 0.000286806
7 *150:45 0.00047674
8 *150:23 0.000223799
9 *150:14 0.000792708
10 *150:8 0.00112132
11 *494:A2 *552:B 0.000355269
12 *150:14 *537:B1 0.000316808
13 *150:14 *552:B 9.78729e-06
14 *150:14 *579:A 0.000205367
15 *150:23 *493:A1 0.000142173
16 *150:23 *552:B 3.68878e-05
17 *150:23 *171:36 4.65192e-05
18 *493:B1 *494:A2 0.000144494
19 *493:B2 *494:A2 0.000110062
20 *493:B2 *150:23 9.64943e-05
21 *494:A3 *494:A2 5.67058e-05
22 *508:B *499:A 0.000132665
23 *529:A2 *507:A1 0
24 *537:A2 *150:14 5.50106e-05
25 *544:A2 *150:14 0.000137651
26 *544:B1 *150:14 0.000187129
27 *28:12 *150:8 0
28 *37:8 *507:A1 3.16784e-05
29 *37:12 *499:A 6.70363e-05
30 *37:12 *150:8 0.000628584
31 *37:12 *150:45 0.000194327
32 *66:14 *150:14 2.64616e-05
33 *79:35 *494:A2 3.17027e-05
34 *139:12 *494:A2 1.03955e-05
35 *144:29 *507:A1 5.90675e-06
*RES
1 *557:X *150:8 46.2443 
2 *150:8 *150:14 29.4586 
3 *150:14 *492:A2 23.4971 
4 *150:14 *150:23 2.52714 
5 *150:23 *493:A2 23 
6 *150:23 *494:A2 29.0693 
7 *150:8 *150:45 2.61 
8 *150:45 *507:A1 42.4743 
9 *150:45 *499:A 40.61 
*END

*D_NET *151 0.00845438
*CONN
*I *524:A1 I *D sky130_fd_sc_hd__a21oi_1
*I *516:B I *D sky130_fd_sc_hd__nand2_1
*I *517:B I *D sky130_fd_sc_hd__or2_1
*I *542:A1 I *D sky130_fd_sc_hd__o31a_1
*I *508:A I *D sky130_fd_sc_hd__xor2_1
*I *558:X O *D sky130_fd_sc_hd__clkbuf_2
*CAP
1 *524:A1 0
2 *516:B 6.99273e-05
3 *517:B 0
4 *542:A1 2.84372e-05
5 *508:A 0
6 *558:X 0.000371247
7 *151:48 0.00029567
8 *151:36 0.000925273
9 *151:27 0.0009631
10 *151:23 0.000374987
11 *151:21 0.000770876
12 *151:10 0.000770876
13 *151:8 0.000371247
14 *151:21 *173:78 0
15 *151:48 *172:57 0.000139856
16 *151:48 *173:53 1.89669e-05
17 *508:B *151:8 3.70187e-05
18 *508:B *151:21 0.000568598
19 *524:A2 *151:27 0.000268065
20 *524:B1 *151:27 3.86731e-05
21 *526:B *151:21 8.28987e-05
22 *542:A3 *151:27 2.2263e-05
23 *547:B1 *151:48 6.11945e-05
24 *547:C1 *151:48 8.03185e-05
25 *29:8 *151:8 8.78864e-05
26 *37:12 *151:21 0.00116047
27 *54:8 *151:21 0.000117143
28 *89:27 *151:48 8.50366e-05
29 *94:14 *151:36 0.000195194
30 *94:27 *542:A1 4.19566e-05
31 *94:27 *151:27 0.000191028
32 *94:27 *151:36 4.44894e-05
33 *94:40 *151:21 0
34 *94:55 *151:21 0
35 *105:24 *151:48 5.03511e-05
36 *144:29 *151:21 4.3407e-05
37 *145:8 *151:8 0
38 *145:8 *151:21 0.000177925
*RES
1 *558:X *151:8 45.8921 
2 *151:8 *151:10 15 
3 *151:10 *508:A 23 
4 *151:10 *151:21 38.78 
5 *151:21 *151:23 15 
6 *151:23 *151:27 6.235 
7 *151:27 *542:A1 23.8493 
8 *151:27 *151:36 7.29143 
9 *151:36 *151:48 35.8 
10 *151:48 *517:B 23 
11 *151:36 *516:B 24.4189 
12 *151:23 *524:A1 23 
*END

*D_NET *152 0.010892
*CONN
*I *542:A2 I *D sky130_fd_sc_hd__o31a_1
*I *525:A I *D sky130_fd_sc_hd__xnor2_1
*I *533:A2 I *D sky130_fd_sc_hd__a31o_1
*I *530:B I *D sky130_fd_sc_hd__nand2_1
*I *531:B I *D sky130_fd_sc_hd__or2_1
*I *559:X O *D sky130_fd_sc_hd__clkbuf_2
*CAP
1 *542:A2 0.000136559
2 *525:A 0.000353682
3 *533:A2 0
4 *530:B 0
5 *531:B 0
6 *559:X 0.000246994
7 *152:59 0.00186023
8 *152:51 0.00141693
9 *152:45 0.00120996
10 *152:28 0.00126757
11 *152:19 0.000326952
12 *152:8 0.000469392
13 *525:A *173:53 3.20631e-05
14 *542:A2 *173:70 8.38067e-05
15 *152:19 *531:A 0.00041901
16 *152:28 *533:A1 3.23857e-06
17 *152:28 *173:31 5.08846e-05
18 *152:28 *173:37 1.47394e-05
19 *152:45 *456:A 5.53124e-05
20 *152:45 *533:A3 4.84129e-06
21 *152:45 *169:14 8.89636e-05
22 *152:45 *173:37 6.82228e-06
23 *152:45 *173:45 0.000157643
24 *152:59 *546:A1 0.000117904
25 *152:59 *173:70 4.30407e-05
26 *532:C *152:19 2.72789e-05
27 *533:B1 *152:28 5.56279e-05
28 *536:A2 *152:51 0.000111276
29 *541:A *152:59 0.000145956
30 *546:B1 *152:59 0.000344314
31 *546:B2 *152:59 0.000296664
32 *563:A *152:8 0
33 *60:10 *152:19 6.15872e-05
34 *61:10 *152:19 0.00013449
35 *67:10 *152:59 0
36 *69:12 *152:59 0.000185434
37 *74:10 *152:59 0.000190627
38 *79:8 *152:51 0.000113414
39 *80:14 *152:59 0
40 *87:14 *152:59 0.000256154
41 *89:56 *152:59 0.00047934
42 *105:10 *152:45 3.28925e-06
43 *109:18 *152:59 7.53303e-06
44 *149:14 *152:45 0.000112446
*RES
1 *559:X *152:8 42.3707 
2 *152:8 *531:B 38 
3 *152:8 *152:19 21.1314 
4 *152:19 *530:B 23 
5 *152:19 *152:28 2.54786 
6 *152:28 *533:A2 23 
7 *152:28 *152:45 45.2043 
8 *152:45 *152:51 31.5536 
9 *152:51 *152:59 42.4257 
10 *152:59 *525:A 44.3386 
11 *152:59 *542:A2 40.61 
*END

*D_NET *153 0.00224042
*CONN
*I *540:B I *D sky130_fd_sc_hd__nand2_1
*I *539:B I *D sky130_fd_sc_hd__or2_1
*I *560:X O *D sky130_fd_sc_hd__clkbuf_1
*CAP
1 *540:B 0.000141428
2 *539:B 0
3 *560:X 0.000321625
4 *153:12 0.000581511
5 *153:8 0.000761707
6 *540:B *539:A 9.76121e-05
7 *67:10 *540:B 5.67058e-05
8 *80:14 *153:12 0
9 *146:8 *153:8 0.000279828
*RES
1 *560:X *153:8 43.3857 
2 *153:8 *153:12 22.8921 
3 *153:12 *539:B 23 
4 *153:12 *540:B 26.5214 
*END

*D_NET *154 0.0095793
*CONN
*I *444:C_N I *D sky130_fd_sc_hd__or3b_4
*I *453:B I *D sky130_fd_sc_hd__nor3b_2
*I *433:B I *D sky130_fd_sc_hd__nor3b_1
*I *434:C I *D sky130_fd_sc_hd__and3_2
*I *439:B I *D sky130_fd_sc_hd__nand3b_4
*I *459:A_N I *D sky130_fd_sc_hd__and3b_1
*I *430:B I *D sky130_fd_sc_hd__or3b_2
*I *436:C I *D sky130_fd_sc_hd__and3b_1
*I *561:X O *D sky130_fd_sc_hd__buf_4
*CAP
1 *444:C_N 0
2 *453:B 7.12356e-05
3 *433:B 0
4 *434:C 0
5 *439:B 0.000279705
6 *459:A_N 0
7 *430:B 0.000330743
8 *436:C 0.000185918
9 *561:X 0.000233852
10 *154:77 0.000250257
11 *154:67 0.000374121
12 *154:58 0.000550779
13 *154:54 0.000740512
14 *154:32 0.000279705
15 *154:30 0.000321881
16 *154:19 0.000475994
17 *154:6 0.000485501
18 *436:C *430:A 8.7574e-05
19 *436:C *155:25 0.00023506
20 *439:B *459:C 0.000315096
21 *453:B *155:73 9.5877e-05
22 *453:B *155:86 4.34745e-05
23 *453:B *155:99 0.000117403
24 *154:19 *459:B 0
25 *154:30 *459:B 0
26 *154:30 *155:57 0
27 *154:54 *170:6 5.47927e-05
28 *154:58 *444:A 9.64943e-05
29 *154:58 *155:64 1.55533e-05
30 *154:58 *156:67 4.39281e-05
31 *154:58 *156:69 0.000171591
32 *154:67 *155:64 1.24376e-05
33 *154:67 *155:73 4.08664e-05
34 *154:77 *433:A 0.000221547
35 *154:77 *156:67 0.00011161
36 *154:77 *174:36 0.000187129
37 *562:A *154:19 2.76611e-06
38 *80:14 *436:C 0.000632545
39 *80:14 *154:6 4.95081e-05
40 *80:14 *154:19 4.43717e-05
41 *80:14 *154:30 5.20202e-05
42 *80:14 *154:54 0.000125802
43 *80:52 *436:C 0.000363317
44 *84:8 *453:B 0.000228909
45 *89:12 *439:B 0.000359536
46 *89:12 *154:30 0
47 *89:12 *154:54 0
48 *93:14 *154:58 1.08287e-05
49 *108:10 *439:B 1.46286e-05
50 *146:8 *430:B 0.000244484
51 *146:8 *436:C 0.000358895
52 *146:8 *154:6 0.000661045
*RES
1 *561:X *154:6 30.2914 
2 *154:6 *436:C 34.1236 
3 *154:6 *154:19 16.2014 
4 *154:19 *430:B 42.9093 
5 *154:19 *154:30 1.55357 
6 *154:30 *154:32 15 
7 *154:32 *459:A_N 23 
8 *154:32 *439:B 30.3329 
9 *154:30 *154:54 20.365 
10 *154:54 *154:58 7.18786 
11 *154:58 *434:C 23 
12 *154:58 *154:67 1.11857 
13 *154:67 *154:77 35.8621 
14 *154:77 *433:B 23 
15 *154:67 *453:B 26.5007 
16 *154:54 *444:C_N 23 
*END

*D_NET *155 0.00644072
*CONN
*I *430:A I *D sky130_fd_sc_hd__or3b_2
*I *429:B I *D sky130_fd_sc_hd__or2_2
*I *443:B I *D sky130_fd_sc_hd__nor2_2
*I *453:A I *D sky130_fd_sc_hd__nor3b_2
*I *433:C_N I *D sky130_fd_sc_hd__nor3b_1
*I *434:B I *D sky130_fd_sc_hd__and3_2
*I *444:B I *D sky130_fd_sc_hd__or3b_4
*I *439:A_N I *D sky130_fd_sc_hd__nand3b_4
*I *436:B I *D sky130_fd_sc_hd__and3b_1
*I *459:B I *D sky130_fd_sc_hd__and3b_1
*I *562:X O *D sky130_fd_sc_hd__buf_2
*CAP
1 *430:A 1.5845e-05
2 *429:B 7.97477e-05
3 *443:B 1.13475e-05
4 *453:A 0
5 *433:C_N 0
6 *434:B 5.1661e-05
7 *444:B 0
8 *439:A_N 5.67488e-05
9 *436:B 0
10 *459:B 0.000126534
11 *562:X 4.68175e-06
12 *155:99 0.000329541
13 *155:86 0.000251179
14 *155:79 0.000147915
15 *155:73 0.000240511
16 *155:64 0.000291699
17 *155:57 0.000343489
18 *155:41 0.000122377
19 *155:33 0.000561038
20 *155:29 0.000654677
21 *155:25 0.000172756
22 *155:8 0.000198676
23 *429:B *156:31 5.67058e-05
24 *429:B *156:40 7.42621e-05
25 *443:B *453:C_N 5.90675e-06
26 *443:B *156:22 0
27 *443:B *156:31 0
28 *443:B *156:40 4.00259e-06
29 *155:29 *156:88 0.000110913
30 *155:29 *156:94 0
31 *155:41 *156:88 0
32 *155:57 *156:82 0.000150977
33 *155:57 *156:88 8.4047e-05
34 *155:64 *444:A 5.3304e-05
35 *155:64 *156:67 5.56279e-05
36 *155:64 *156:69 0.000185368
37 *155:73 *156:53 2.64616e-05
38 *155:79 *433:A 0.000166532
39 *155:79 *156:67 6.25829e-05
40 *155:86 *156:53 2.18506e-05
41 *155:99 *453:C_N 0
42 *155:99 *156:40 5.70419e-05
43 *155:99 *156:53 0.000255542
44 *436:C *430:A 8.7574e-05
45 *436:C *155:25 0.00023506
46 *453:B *155:73 9.5877e-05
47 *453:B *155:86 4.34745e-05
48 *453:B *155:99 0.000117403
49 *562:A *155:25 6.07611e-06
50 *80:52 *155:41 2.29192e-05
51 *84:8 *155:99 2.28212e-05
52 *84:10 *155:79 0
53 *89:12 *155:33 0.000274234
54 *93:14 *434:B 0
55 *93:14 *155:64 6.17437e-06
56 *102:8 *155:99 5.50106e-05
57 *108:10 *155:57 1.12487e-05
58 *146:8 *430:A 9.91101e-05
59 *146:8 *155:25 0.000231039
60 *146:8 *155:41 3.22879e-05
61 *154:19 *459:B 0
62 *154:30 *459:B 0
63 *154:30 *155:57 0
64 *154:58 *155:64 1.55533e-05
65 *154:67 *155:64 1.24376e-05
66 *154:67 *155:73 4.08664e-05
*RES
1 *562:X *155:8 38.3211 
2 *155:8 *459:B 40.3511 
3 *155:8 *155:25 18.2004 
4 *155:25 *155:29 17.2579 
5 *155:29 *155:33 20.3857 
6 *155:33 *155:41 31.8229 
7 *155:41 *436:B 23 
8 *155:33 *439:A_N 24.2014 
9 *155:29 *155:57 18.6664 
10 *155:57 *444:B 23 
11 *155:57 *155:64 3.48 
12 *155:64 *434:B 24.2014 
13 *155:64 *155:73 1.57429 
14 *155:73 *155:79 32.9621 
15 *155:79 *433:C_N 23 
16 *155:73 *155:86 0.621429 
17 *155:86 *453:A 23 
18 *155:86 *155:99 6.87714 
19 *155:99 *443:B 23.4971 
20 *155:99 *429:B 25.0507 
21 *155:25 *430:A 24.0979 
*END

*D_NET *156 0.00982187
*CONN
*I *433:A I *D sky130_fd_sc_hd__nor3b_1
*I *434:A I *D sky130_fd_sc_hd__and3_2
*I *439:C I *D sky130_fd_sc_hd__nand3b_4
*I *459:C I *D sky130_fd_sc_hd__and3b_1
*I *436:A_N I *D sky130_fd_sc_hd__and3b_1
*I *430:C_N I *D sky130_fd_sc_hd__or3b_2
*I *444:A I *D sky130_fd_sc_hd__or3b_4
*I *453:C_N I *D sky130_fd_sc_hd__nor3b_2
*I *443:A I *D sky130_fd_sc_hd__nor2_2
*I *429:A I *D sky130_fd_sc_hd__or2_2
*I *563:X O *D sky130_fd_sc_hd__buf_4
*CAP
1 *433:A 0.000173519
2 *434:A 0
3 *439:C 0
4 *459:C 0.000131533
5 *436:A_N 4.99042e-05
6 *430:C_N 0
7 *444:A 7.40598e-05
8 *453:C_N 2.14194e-05
9 *443:A 0
10 *429:A 0
11 *563:X 0.000622933
12 *156:108 0.000131533
13 *156:94 5.42474e-05
14 *156:88 0.000365515
15 *156:82 0.000346868
16 *156:69 0.000204031
17 *156:67 0.000323532
18 *156:53 0.000722921
19 *156:40 0.000372883
20 *156:31 0.000161186
21 *156:22 0.00054857
22 *156:12 0.00109144
23 *156:12 *158:6 0.000170274
24 *156:12 *158:24 0.000308045
25 *156:12 *175:41 0.000140259
26 *156:22 *175:41 9.19684e-06
27 *429:B *156:31 5.67058e-05
28 *429:B *156:40 7.42621e-05
29 *431:A2_N *156:12 1.1314e-05
30 *438:B1 *156:12 5.67058e-05
31 *439:B *459:C 0.000315096
32 *441:C *156:12 9.4713e-05
33 *441:D *156:12 6.68184e-05
34 *443:B *453:C_N 5.90675e-06
35 *443:B *156:22 0
36 *443:B *156:31 0
37 *443:B *156:40 4.00259e-06
38 *79:95 *156:22 0.000141954
39 *90:10 *156:22 3.56594e-05
40 *91:8 *156:12 8.69177e-05
41 *92:10 *156:40 4.95081e-05
42 *92:10 *156:53 0.000146959
43 *93:14 *444:A 2.58554e-05
44 *108:10 *459:C 0.000123693
45 *108:10 *156:82 0.000108681
46 *146:8 *436:A_N 8.70038e-05
47 *146:8 *156:88 0.000232734
48 *146:35 *156:22 0.000130017
49 *146:39 *156:22 1.24376e-05
50 *146:71 *156:12 5.56356e-05
51 *154:58 *444:A 9.64943e-05
52 *154:58 *156:67 4.39281e-05
53 *154:58 *156:69 0.000171591
54 *154:77 *433:A 0.000221547
55 *154:77 *156:67 0.00011161
56 *155:29 *156:88 0.000110913
57 *155:29 *156:94 0
58 *155:41 *156:88 0
59 *155:57 *156:82 0.000150977
60 *155:57 *156:88 8.4047e-05
61 *155:64 *444:A 5.3304e-05
62 *155:64 *156:67 5.56279e-05
63 *155:64 *156:69 0.000185368
64 *155:73 *156:53 2.64616e-05
65 *155:79 *433:A 0.000166532
66 *155:79 *156:67 6.25829e-05
67 *155:86 *156:53 2.18506e-05
68 *155:99 *453:C_N 0
69 *155:99 *156:40 5.70419e-05
70 *155:99 *156:53 0.000255542
*RES
1 *563:X *156:12 37.1479 
2 *156:12 *156:22 36.96 
3 *156:22 *429:A 23 
4 *156:22 *156:31 2.07143 
5 *156:31 *443:A 23 
6 *156:31 *156:40 3.02429 
7 *156:40 *453:C_N 23.4971 
8 *156:40 *156:53 20.8829 
9 *156:53 *156:67 20.2407 
10 *156:67 *156:69 2.05071 
11 *156:69 *444:A 24.9471 
12 *156:69 *156:82 17.2579 
13 *156:82 *156:88 20.1371 
14 *156:88 *156:94 30.8493 
15 *156:94 *430:C_N 23 
16 *156:88 *436:A_N 24.0979 
17 *156:82 *156:108 15 
18 *156:108 *459:C 26.9771 
19 *156:108 *439:C 23 
20 *156:67 *434:A 23 
21 *156:53 *433:A 42.35 
*END

*D_NET *157 0.0107671
*CONN
*I *454:A I *D sky130_fd_sc_hd__nand2_1
*I *455:A I *D sky130_fd_sc_hd__or2_1
*I *461:A1_N I *D sky130_fd_sc_hd__a2bb2o_1
*I *435:B2 I *D sky130_fd_sc_hd__a32o_1
*I *472:B2 I *D sky130_fd_sc_hd__a2bb2o_1
*I *449:B1 I *D sky130_fd_sc_hd__a21o_1
*I *448:A I *D sky130_fd_sc_hd__and3_1
*I *564:X O *D sky130_fd_sc_hd__clkbuf_2
*CAP
1 *454:A 0.000475352
2 *455:A 0.000172
3 *461:A1_N 3.37673e-05
4 *435:B2 0.000329135
5 *472:B2 0
6 *449:B1 8.79387e-05
7 *448:A 0
8 *564:X 0.000289742
9 *157:75 0.000850991
10 *157:54 0.000328557
11 *157:44 0.000905692
12 *157:42 0.00032365
13 *157:38 0.00125236
14 *157:12 0.000129835
15 *157:10 0.00107833
16 *157:8 0.000611769
17 *435:B2 *451:B_N 0.000248979
18 *435:B2 *158:33 0
19 *435:B2 *175:27 4.2812e-06
20 *461:A1_N *533:A3 0.000100061
21 *157:8 *160:8 5.3304e-05
22 *157:10 *160:16 0.000195549
23 *157:38 *158:33 0
24 *157:38 *160:16 0.000403127
25 *157:38 *168:81 1.08978e-05
26 *157:54 *462:A1 5.3304e-05
27 *448:B *449:B1 9.89664e-05
28 *448:C *449:B1 0.000135986
29 *454:B *454:A 1.9054e-05
30 *458:A2 *454:A 0.000102804
31 *458:A3 *454:A 7.53303e-06
32 *461:B1 *157:54 0.000120712
33 *462:B2 *454:A 1.60195e-05
34 *463:C1 *157:38 0
35 *472:B1 *157:54 7.59537e-05
36 *475:A3 *157:8 0.000270667
37 *62:10 *461:A1_N 2.93335e-05
38 *63:8 *435:B2 0
39 *63:8 *157:75 0
40 *84:71 *454:A 1.31005e-05
41 *87:79 *157:38 0.0001366
42 *89:106 *435:B2 5.58873e-06
43 *92:92 *449:B1 0
44 *92:92 *157:10 0
45 *92:92 *157:38 0
46 *95:10 *157:38 0
47 *102:42 *455:A 2.02872e-05
48 *102:50 *454:A 7.43209e-05
49 *102:50 *157:38 2.40062e-05
50 *102:50 *157:42 3.6608e-05
51 *102:65 *455:A 7.87243e-05
52 *103:6 *454:A 6.63159e-06
53 *105:44 *157:54 0.000132638
54 *110:12 *157:38 9.11348e-06
55 *110:12 *157:42 8.36198e-05
56 *110:12 *157:75 0.000308174
57 *111:12 *157:38 0.000276757
58 *112:10 *157:10 0.000227497
59 *112:25 *157:10 0.000209775
60 *115:29 *157:10 0
61 *122:14 *157:38 0
62 *147:66 *454:A 2.33782e-05
63 *147:76 *454:A 2.64616e-05
64 *149:14 *435:B2 6.85236e-05
65 *149:14 *455:A 5.5792e-05
66 *149:14 *157:44 2.2065e-05
67 *149:14 *157:54 9.06146e-05
68 *149:14 *157:75 2.12147e-05
*RES
1 *564:X *157:8 43.3857 
2 *157:8 *157:10 8.59643 
3 *157:10 *157:12 0.621429 
4 *157:12 *448:A 38 
5 *157:12 *449:B1 40.9207 
6 *157:10 *157:38 15.3493 
7 *157:38 *157:42 16.2014 
8 *157:42 *157:44 1.09786 
9 *157:44 *157:54 35.5307 
10 *157:54 *472:B2 23 
11 *157:44 *157:75 36.5884 
12 *157:75 *435:B2 43.4271 
13 *157:75 *461:A1_N 39.0979 
14 *157:42 *455:A 26.8736 
15 *157:38 *454:A 45.0636 
*END

*D_NET *158 0.00769694
*CONN
*I *550:A I *D sky130_fd_sc_hd__or3_4
*I *573:A I *D sky130_fd_sc_hd__clkbuf_4
*I *442:X O *D sky130_fd_sc_hd__buf_1
*CAP
1 *550:A 9.33488e-05
2 *573:A 0
3 *442:X 0.000143301
4 *158:33 0.00128105
5 *158:24 0.000798767
6 *158:6 0.00212977
7 *158:24 *163:12 0.000198538
8 *158:24 *175:41 8.47428e-05
9 *158:24 *175:49 0
10 *158:33 *168:81 5.79413e-06
11 *158:33 *175:27 1.34354e-05
12 *158:33 *175:65 0
13 *432:A2 *158:24 2.64616e-05
14 *432:B1 *158:24 3.34247e-05
15 *435:B2 *158:33 0
16 *438:B1 *158:33 7.57281e-06
17 *461:B1 *158:33 7.83057e-05
18 *461:B2 *158:33 0.00023889
19 *471:B2 *158:33 0.00011858
20 *534:B1 *158:33 1.88014e-05
21 *63:8 *158:33 0.000257724
22 *81:8 *158:24 9.8963e-05
23 *82:14 *158:24 0.000264559
24 *87:79 *158:33 0
25 *105:10 *158:33 8.36198e-05
26 *105:44 *158:33 0.000431935
27 *110:12 *158:33 8.36198e-05
28 *122:14 *158:33 7.03766e-05
29 *146:8 *158:24 1.63927e-05
30 *146:14 *158:24 0.000319682
31 *146:43 *158:33 0.000185755
32 *146:71 *158:33 0.000111852
33 *148:59 *158:33 2.33476e-05
34 *149:14 *158:33 0
35 *156:12 *158:6 0.000170274
36 *156:12 *158:24 0.000308045
37 *157:38 *158:33 0
*RES
1 *442:X *158:6 25.0507 
2 *158:6 *158:24 47.2757 
3 *158:24 *573:A 23 
4 *158:6 *158:33 39.4429 
5 *158:33 *550:A 39.5743 
*END

*D_NET *159 0.00358991
*CONN
*I *574:A I *D sky130_fd_sc_hd__clkbuf_4
*I *550:B I *D sky130_fd_sc_hd__or3_4
*I *463:X O *D sky130_fd_sc_hd__a211o_1
*CAP
1 *574:A 0
2 *550:B 0.000430647
3 *463:X 0.000137925
4 *159:23 0.000623554
5 *159:8 0.00119213
6 *159:23 *174:10 0
7 *463:A2 *159:8 5.3304e-05
8 *464:A2 *550:B 0.000101708
9 *464:A2 *159:23 0.000380342
10 *97:12 *159:23 0
11 *97:27 *550:B 5.79559e-05
12 *98:33 *550:B 0.000293226
13 *98:33 *159:23 7.70737e-05
14 *99:10 *550:B 0.000102389
15 *100:10 *550:B 0.000139657
*RES
1 *463:X *159:8 39.5743 
2 *159:8 *550:B 46.2236 
3 *159:8 *159:23 27.8221 
4 *159:23 *574:A 23 
*END

*D_NET *160 0.00383819
*CONN
*I *575:A I *D sky130_fd_sc_hd__clkbuf_4
*I *550:C I *D sky130_fd_sc_hd__or3_4
*I *475:X O *D sky130_fd_sc_hd__a31o_1
*CAP
1 *575:A 0.000493162
2 *550:C 0
3 *475:X 4.99221e-05
4 *160:16 0.000558397
5 *160:8 0.00110148
6 *575:A *174:8 6.86244e-05
7 *463:C1 *160:16 0
8 *10:13 *575:A 0.000102389
9 *97:12 *160:16 9.47645e-05
10 *97:27 *160:16 0
11 *99:10 *160:16 5.93381e-05
12 *112:10 *160:16 0.000225275
13 *112:25 *575:A 7.35277e-05
14 *112:25 *160:16 0.000193733
15 *147:16 *160:16 0.000165593
16 *157:8 *160:8 5.3304e-05
17 *157:10 *160:16 0.000195549
18 *157:38 *160:16 0.000403127
*RES
1 *475:X *160:8 38.6214 
2 *160:8 *160:16 29.2929 
3 *160:16 *550:C 23 
4 *160:8 *575:A 47.8393 
*END

*D_NET *161 0.00528249
*CONN
*I *576:A I *D sky130_fd_sc_hd__clkbuf_4
*I *551:A I *D sky130_fd_sc_hd__or3_4
*I *491:X O *D sky130_fd_sc_hd__o22a_1
*CAP
1 *576:A 0
2 *551:A 5.41197e-05
3 *491:X 0.000187984
4 *161:33 0.00202117
5 *161:10 0.00226328
6 *161:10 *162:19 2.71291e-05
7 *161:10 *170:92 0
8 *161:33 *162:19 0.000171941
9 *527:A2 *161:33 0.000166349
10 *527:C1 *161:33 0.000130544
11 *528:A2 *161:33 1.40958e-05
12 *551:C *551:A 9.67842e-05
13 *56:10 *161:33 9.84851e-05
14 *92:82 *161:10 5.06045e-05
15 *142:10 *161:10 0
*RES
1 *491:X *161:10 40.8793 
2 *161:10 *551:A 39.0979 
3 *161:10 *161:33 45.8021 
4 *161:33 *576:A 23 
*END

*D_NET *162 0.00367284
*CONN
*I *577:A I *D sky130_fd_sc_hd__clkbuf_4
*I *551:B I *D sky130_fd_sc_hd__or3_4
*I *505:X O *D sky130_fd_sc_hd__o32a_1
*CAP
1 *577:A 0
2 *551:B 0
3 *505:X 0.000259665
4 *162:19 0.00069327
5 *162:6 0.000952935
6 *162:19 *170:92 0.0009427
7 *162:19 *170:113 0.000292391
8 *505:A3 *162:6 5.50049e-05
9 *551:C *162:6 5.50049e-05
10 *551:C *162:19 9.67842e-05
11 *124:8 *162:19 4.31263e-05
12 *129:40 *162:19 4.84369e-05
13 *130:8 *162:19 3.44543e-05
14 *161:10 *162:19 2.71291e-05
15 *161:33 *162:19 0.000171941
*RES
1 *505:X *162:6 27.4329 
2 *162:6 *551:B 23 
3 *162:6 *162:19 48.85 
4 *162:19 *577:A 23 
*END

*D_NET *163 0.00795282
*CONN
*I *552:A I *D sky130_fd_sc_hd__nor4_4
*I *578:A I *D sky130_fd_sc_hd__clkbuf_4
*I *522:X O *D sky130_fd_sc_hd__o21a_1
*CAP
1 *552:A 0.000109705
2 *578:A 0
3 *522:X 0.000762407
4 *163:12 0.001084
5 *163:8 0.00119371
6 *163:6 0.000762407
7 *552:A *166:8 8.85189e-05
8 *552:A *168:20 0
9 *552:A *175:65 5.2949e-05
10 *163:6 *165:33 9.30151e-05
11 *163:12 *435:A3 0.000373786
12 *163:12 *169:18 0.000252887
13 *163:12 *173:45 0
14 *163:12 *175:41 8.64259e-05
15 *163:12 *175:65 0.000291991
16 *440:B *163:12 0
17 *470:A2 *163:12 0
18 *474:C *163:6 5.50106e-05
19 *522:A1 *163:6 0.000142634
20 *534:B1 *163:12 2.29895e-05
21 *79:12 *163:6 0.000931299
22 *80:64 *163:12 0
23 *81:8 *163:12 1.94418e-05
24 *82:14 *163:12 0.00013857
25 *85:10 *163:12 5.39045e-05
26 *89:85 *163:12 0.000209945
27 *92:52 *163:6 0.000521782
28 *119:10 *552:A 3.70187e-05
29 *119:10 *163:12 0.000141879
30 *120:8 *163:12 0.000289713
31 *121:10 *552:A 1.12487e-05
32 *121:10 *163:12 2.70366e-05
33 *158:24 *163:12 0.000198538
*RES
1 *522:X *163:6 41.2493 
2 *163:6 *163:8 15 
3 *163:8 *163:12 40.4993 
4 *163:12 *578:A 23 
5 *163:8 *552:A 40.9621 
*END

*D_NET *164 0.00573994
*CONN
*I *552:B I *D sky130_fd_sc_hd__nor4_4
*I *579:A I *D sky130_fd_sc_hd__clkbuf_4
*I *537:Y O *D sky130_fd_sc_hd__o21ai_1
*CAP
1 *552:B 0.00142554
2 *579:A 0.000518734
3 *537:Y 0
4 *164:4 0.00194427
5 *552:B *493:A1 0.000100062
6 *552:B *537:B1 0.000177836
7 *579:A *537:B1 7.53384e-06
8 *491:A1 *552:B 1.76557e-05
9 *494:A2 *552:B 0.000355269
10 *494:A3 *552:B 3.06709e-05
11 *494:B1 *552:B 0.000224605
12 *544:B1 *579:A 0.000103647
13 *552:D *552:B 0.000139352
14 *66:14 *579:A 5.3304e-05
15 *77:8 *552:B 0.000184661
16 *92:82 *552:B 0.00019486
17 *131:12 *552:B 9.8971e-06
18 *150:14 *552:B 9.78729e-06
19 *150:14 *579:A 0.000205367
20 *150:23 *552:B 3.68878e-05
*RES
1 *537:Y *164:4 23 
2 *164:4 *579:A 32.1971 
3 *164:4 *552:B 48.2714 
*END

*D_NET *165 0.00909969
*CONN
*I *552:C I *D sky130_fd_sc_hd__nor4_4
*I *580:A I *D sky130_fd_sc_hd__clkbuf_4
*I *549:Y O *D sky130_fd_sc_hd__a21oi_1
*CAP
1 *552:C 0
2 *580:A 0.000277997
3 *549:Y 8.18543e-05
4 *165:33 0.000960116
5 *165:18 0.00131526
6 *165:8 0.00207924
7 *165:33 *167:16 0.000657954
8 *165:33 *168:20 5.26308e-05
9 *500:A *580:A 0.000189848
10 *500:B *580:A 7.95762e-05
11 *522:A1 *165:33 0.000222823
12 *522:B1 *165:33 9.65021e-05
13 *544:B1 *165:18 0
14 *545:A3 *165:18 1.41077e-05
15 *549:A1 *165:18 0.0003489
16 *549:A1 *165:33 1.32314e-05
17 *549:A2 *165:18 5.67058e-05
18 *40:10 *165:18 0.000122417
19 *42:12 *165:18 0
20 *55:14 *165:18 0.000453325
21 *55:29 *165:18 0
22 *56:10 *165:18 9.9284e-05
23 *57:8 *165:18 0.00014738
24 *66:29 *165:18 5.3304e-05
25 *72:8 *165:18 4.08641e-05
26 *79:12 *165:33 0.000942835
27 *80:35 *165:8 5.50049e-05
28 *80:35 *165:33 0.000197879
29 *92:52 *165:8 0.000102482
30 *92:52 *165:18 7.19852e-05
31 *92:52 *165:33 9.77922e-06
32 *94:40 *165:18 0
33 *94:55 *165:18 0
34 *143:6 *580:A 4.08664e-05
35 *143:19 *165:18 0.000140875
36 *145:8 *165:18 0
37 *148:30 *165:33 8.16459e-05
38 *163:6 *165:33 9.30151e-05
*RES
1 *549:Y *165:8 25.2993 
2 *165:8 *165:18 39.0079 
3 *165:18 *580:A 43.3857 
4 *165:8 *165:33 38.3657 
5 *165:33 *552:C 38 
*END

*D_NET *166 0.00146519
*CONN
*I *581:A I *D sky130_fd_sc_hd__buf_6
*I *552:Y O *D sky130_fd_sc_hd__nor4_4
*CAP
1 *581:A 0.000574555
2 *552:Y 4.11681e-05
3 *166:8 0.000615723
4 *166:8 *175:65 8.85189e-05
5 *552:A *166:8 8.85189e-05
6 *122:8 *581:A 5.67058e-05
*RES
1 *552:Y *166:8 39.2014 
2 *166:8 *581:A 47.2386 
*END

*D_NET *167 0.0035485
*CONN
*I *537:B1 I *D sky130_fd_sc_hd__o21ai_1
*I *582:X O *D sky130_fd_sc_hd__clkbuf_1
*CAP
1 *537:B1 5.89016e-05
2 *582:X 0.000232193
3 *167:16 0.000684847
4 *167:8 0.000858138
5 *167:8 *171:64 0.000415028
6 *167:16 *171:36 1.68817e-05
7 *493:B1 *167:8 7.25874e-05
8 *552:B *537:B1 0.000177836
9 *579:A *537:B1 7.53384e-06
10 *79:35 *167:8 2.71291e-05
11 *79:60 *167:16 0
12 *87:44 *167:8 2.26679e-05
13 *150:14 *537:B1 0.000316808
14 *165:33 *167:16 0.000657954
*RES
1 *582:X *167:8 43.7793 
2 *167:8 *167:16 39.5493 
3 *167:16 *537:B1 41.48 
*END

*D_NET *168 0.0117741
*CONN
*I *467:A I *D sky130_fd_sc_hd__xnor2_1
*I *481:A I *D sky130_fd_sc_hd__and2_1
*I *473:A1 I *D sky130_fd_sc_hd__a32o_1
*I *470:A1 I *D sky130_fd_sc_hd__a21oi_1
*I *471:A1 I *D sky130_fd_sc_hd__o22a_1
*I *472:A1_N I *D sky130_fd_sc_hd__a2bb2o_1
*I *462:A1 I *D sky130_fd_sc_hd__a221o_1
*I *489:B2 I *D sky130_fd_sc_hd__a32o_1
*I *565:X O *D sky130_fd_sc_hd__buf_2
*CAP
1 *467:A 8.35899e-05
2 *481:A 0
3 *473:A1 0
4 *470:A1 0
5 *471:A1 0
6 *472:A1_N 0
7 *462:A1 0.000208127
8 *489:B2 0
9 *565:X 0.000744398
10 *168:100 8.35899e-05
11 *168:81 0.000426556
12 *168:47 0.000293678
13 *168:43 0.000581357
14 *168:39 0.000114951
15 *168:32 0.000181467
16 *168:24 0.000317871
17 *168:20 0.00126561
18 *168:14 0.00250835
19 *168:8 0.00207785
20 *168:8 *171:10 5.5792e-05
21 *168:14 *172:10 0.000278042
22 *168:20 *465:A1 6.32792e-05
23 *168:20 *175:65 0
24 *168:20 *175:77 5.81066e-05
25 *462:B2 *462:A1 7.86932e-05
26 *462:B2 *168:81 7.3965e-06
27 *467:B *467:A 9.79925e-05
28 *470:A2 *168:20 1.13812e-05
29 *470:A2 *168:24 0.000137907
30 *470:A2 *168:43 5.58003e-05
31 *471:B2 *168:81 0.000119389
32 *472:A2_N *462:A1 2.193e-05
33 *472:A2_N *168:47 9.66668e-05
34 *472:A2_N *168:81 0.000138859
35 *472:B1 *462:A1 4.68377e-05
36 *472:B1 *168:81 0.000138859
37 *473:B1 *168:32 6.33771e-05
38 *552:A *168:20 0
39 *26:12 *168:14 1.60121e-05
40 *79:8 *168:20 0
41 *80:64 *168:32 3.0918e-05
42 *80:64 *168:47 0
43 *84:71 *462:A1 0.00037674
44 *84:71 *168:39 2.75275e-06
45 *84:71 *168:43 7.64059e-06
46 *84:71 *168:47 6.55954e-05
47 *87:79 *168:81 3.54728e-05
48 *105:44 *168:81 0.000100069
49 *113:19 *168:20 0.000184362
50 *114:10 *168:14 2.53488e-05
51 *114:10 *168:20 0.000141038
52 *118:18 *168:32 9.08709e-06
53 *120:8 *168:20 0
54 *121:10 *168:20 0
55 *122:14 *168:20 0
56 *148:10 *168:14 7.52305e-05
57 *148:10 *168:20 8.91405e-05
58 *148:20 *168:20 0
59 *148:22 *168:20 0
60 *148:30 *168:20 0
61 *148:59 *168:20 3.78361e-05
62 *148:59 *168:81 2.93431e-05
63 *149:31 *168:32 6.71815e-05
64 *157:38 *168:81 1.08978e-05
65 *157:54 *462:A1 5.3304e-05
66 *158:33 *168:81 5.79413e-06
67 *165:33 *168:20 5.26308e-05
*RES
1 *565:X *168:8 35.5529 
2 *168:8 *168:14 34.0779 
3 *168:14 *168:20 23.4486 
4 *168:20 *168:24 16.9057 
5 *168:24 *168:32 32.9 
6 *168:32 *489:B2 23 
7 *168:24 *168:39 0.621429 
8 *168:39 *168:43 1.595 
9 *168:43 *168:47 2.42357 
10 *168:47 *462:A1 29.5457 
11 *168:47 *472:A1_N 23 
12 *168:43 *168:81 38.555 
13 *168:81 *471:A1 23 
14 *168:39 *470:A1 23 
15 *168:20 *473:A1 38 
16 *168:14 *168:100 15 
17 *168:100 *481:A 23 
18 *168:100 *467:A 24.5743 
*END

*D_NET *169 0.0098603
*CONN
*I *473:A3 I *D sky130_fd_sc_hd__a32o_1
*I *489:A3 I *D sky130_fd_sc_hd__a32o_1
*I *456:A I *D sky130_fd_sc_hd__inv_2
*I *533:A3 I *D sky130_fd_sc_hd__a31o_1
*I *435:A3 I *D sky130_fd_sc_hd__a32o_1
*I *572:X O *D sky130_fd_sc_hd__clkbuf_2
*CAP
1 *473:A3 0.000320579
2 *489:A3 0
3 *456:A 0.000114163
4 *533:A3 0.000262114
5 *435:A3 0.000233331
6 *572:X 0.000414895
7 *169:76 0.000517348
8 *169:57 0.000407075
9 *169:18 0.000619121
10 *169:14 0.000555953
11 *169:10 0.000943316
12 *435:A3 *435:A1 0
13 *435:A3 *175:31 0.000191633
14 *435:A3 *175:41 2.4754e-05
15 *435:A3 *175:65 0.000321347
16 *473:A3 *473:B2 2.02872e-05
17 *533:A3 *533:A1 1.33082e-05
18 *533:A3 *173:37 0.00043826
19 *169:10 *174:36 0.000361027
20 *169:14 *173:45 0.000391698
21 *169:18 *175:65 0.000263347
22 *440:B *435:A3 0
23 *461:A1_N *533:A3 0.000100061
24 *461:B1 *533:A3 5.50106e-05
25 *473:B1 *473:A3 0.000167514
26 *473:B1 *169:76 8.36198e-05
27 *487:A1 *169:57 0.000159285
28 *534:B1 *435:A3 2.60152e-05
29 *536:B1 *533:A3 1.46286e-05
30 *536:C1 *533:A3 0.000242279
31 *62:10 *533:A3 1.5769e-05
32 *65:18 *169:10 0.000140326
33 *65:18 *169:57 0.000107672
34 *79:8 *169:10 0.000366524
35 *79:8 *169:57 0.00041559
36 *79:8 *169:76 9.78472e-05
37 *84:25 *169:14 0.000179725
38 *87:14 *169:10 0
39 *87:69 *473:A3 1.55381e-05
40 *105:10 *456:A 7.61229e-06
41 *133:25 *169:76 4.16051e-06
42 *146:39 *435:A3 0.000182826
43 *146:63 *435:A3 5.3304e-05
44 *148:30 *473:A3 4.51175e-05
45 *149:31 *169:76 0.000100486
46 *149:37 *169:76 9.00432e-05
47 *152:45 *456:A 5.53124e-05
48 *152:45 *533:A3 4.84129e-06
49 *152:45 *169:14 8.89636e-05
50 *163:12 *435:A3 0.000373786
51 *163:12 *169:18 0.000252887
*RES
1 *572:X *169:10 47.0314 
2 *169:10 *169:14 22.2914 
3 *169:14 *169:18 18.6664 
4 *169:18 *435:A3 46.0993 
5 *169:18 *533:A3 45.975 
6 *169:14 *456:A 25.0507 
7 *169:10 *169:57 5.77929 
8 *169:57 *489:A3 38 
9 *169:57 *169:76 48.625 
10 *169:76 *473:A3 27.8057 
*END

*D_NET *170 0.01615
*CONN
*I *479:A I *D sky130_fd_sc_hd__or2_1
*I *478:A I *D sky130_fd_sc_hd__nand2_1
*I *502:A1 I *D sky130_fd_sc_hd__a21o_1
*I *473:B2 I *D sky130_fd_sc_hd__a32o_1
*I *486:A I *D sky130_fd_sc_hd__or2_1
*I *488:A1_N I *D sky130_fd_sc_hd__a2bb2o_1
*I *489:A1 I *D sky130_fd_sc_hd__a32o_1
*I *485:A I *D sky130_fd_sc_hd__nand2_1
*I *496:B2 I *D sky130_fd_sc_hd__a221o_1
*I *566:X O *D sky130_fd_sc_hd__buf_2
*CAP
1 *479:A 0.0001969
2 *478:A 0
3 *502:A1 0.000176742
4 *473:B2 9.85264e-05
5 *486:A 0
6 *488:A1_N 0
7 *489:A1 0
8 *485:A 0
9 *496:B2 2.5734e-05
10 *566:X 0.000951192
11 *170:113 0.000189001
12 *170:94 0.000451224
13 *170:92 0.00102567
14 *170:70 0.000201696
15 *170:51 9.33539e-05
16 *170:45 0.000244753
17 *170:35 0.000254025
18 *170:31 0.000267368
19 *170:29 0.00133373
20 *170:16 0.000834721
21 *170:14 0.000857507
22 *170:6 0.00152858
23 *170:14 *174:46 0
24 *170:16 *172:49 1.21972e-05
25 *170:29 *496:A1 9.80703e-06
26 *473:A3 *473:B2 2.02872e-05
27 *473:B1 *473:B2 0.000100486
28 *479:B *479:A 0.000128915
29 *479:B *502:A1 9.41704e-05
30 *479:B *170:94 8.17328e-05
31 *480:A *170:113 2.2426e-05
32 *484:A *479:A 2.193e-05
33 *486:B *473:B2 5.08656e-05
34 *486:B *170:70 5.58003e-05
35 *490:C1 *170:70 5.5792e-05
36 *496:A2 *170:29 0.000177686
37 *502:A2 *502:A1 0.000100477
38 *536:A2 *170:51 0.000205001
39 *549:B1 *170:14 0.000567318
40 *551:C *170:92 2.84809e-05
41 *65:18 *170:45 8.15258e-05
42 *78:8 *170:92 1.02387e-05
43 *79:8 *170:51 0.000241192
44 *80:14 *170:14 0
45 *87:52 *170:29 0.000116877
46 *87:69 *473:B2 0.000116554
47 *87:69 *170:29 5.50049e-05
48 *87:69 *170:70 7.82806e-05
49 *89:14 *170:14 0.000554075
50 *89:27 *170:14 0.000367716
51 *89:135 *170:35 4.41821e-06
52 *92:82 *170:92 0.000139647
53 *94:10 *170:14 0.000171789
54 *109:18 *170:14 5.94125e-05
55 *109:43 *170:16 6.72566e-05
56 *109:43 *170:29 3.04031e-05
57 *109:57 *170:45 0.000312637
58 *109:61 *170:51 3.91688e-05
59 *123:10 *170:92 0.00014411
60 *124:8 *170:113 4.6318e-06
61 *124:21 *170:113 9.84053e-05
62 *129:10 *479:A 9.98069e-06
63 *129:14 *502:A1 1.09834e-05
64 *129:40 *170:92 8.57485e-05
65 *130:8 *170:113 8.88793e-05
66 *131:12 *170:92 0.000459106
67 *133:6 *170:70 5.3304e-05
68 *133:14 *170:31 1.29944e-05
69 *133:14 *170:35 1.51481e-05
70 *133:14 *170:70 9.41704e-05
71 *133:25 *170:35 2.46399e-05
72 *134:10 *170:31 1.74918e-05
73 *134:10 *170:35 3.05796e-05
74 *134:10 *170:92 3.95159e-06
75 *135:10 *170:31 3.67392e-05
76 *135:10 *170:35 0.000110258
77 *137:10 *170:29 9.75779e-05
78 *137:10 *170:92 0.000167412
79 *142:10 *170:29 0.000138444
80 *148:30 *473:B2 0.000147656
81 *149:31 *170:45 4.1372e-05
82 *149:37 *170:45 5.62466e-05
83 *149:50 *170:31 0
84 *149:50 *170:92 0
85 *154:54 *170:6 5.47927e-05
86 *161:10 *170:92 0
87 *162:19 *170:92 0.0009427
88 *162:19 *170:113 0.000292391
*RES
1 *566:X *170:6 35.5321 
2 *170:6 *170:14 46.4886 
3 *170:14 *170:16 4.91446 
4 *170:16 *496:B2 23.4971 
5 *170:16 *170:29 25.642 
6 *170:29 *170:31 1.20143 
7 *170:31 *170:35 17.2579 
8 *170:35 *170:45 4.77464 
9 *170:45 *170:51 33.3143 
10 *170:51 *485:A 23 
11 *170:45 *489:A1 23 
12 *170:35 *488:A1_N 23 
13 *170:31 *170:70 17.5271 
14 *170:70 *486:A 23 
15 *170:70 *473:B2 26.5007 
16 *170:29 *170:92 35.9836 
17 *170:92 *170:94 1.09786 
18 *170:94 *502:A1 25.5271 
19 *170:94 *170:113 35.0336 
20 *170:113 *478:A 23 
21 *170:92 *479:A 26.0243 
*END

*D_NET *171 0.00991919
*CONN
*I *497:A I *D sky130_fd_sc_hd__inv_2
*I *494:A1 I *D sky130_fd_sc_hd__a31o_1
*I *488:B2 I *D sky130_fd_sc_hd__a2bb2o_1
*I *521:A1 I *D sky130_fd_sc_hd__a211o_1
*I *495:A I *D sky130_fd_sc_hd__nor2_1
*I *493:A1 I *D sky130_fd_sc_hd__o22a_1
*I *492:A1 I *D sky130_fd_sc_hd__a21oi_1
*I *567:X O *D sky130_fd_sc_hd__clkbuf_2
*CAP
1 *497:A 0
2 *494:A1 0
3 *488:B2 0.000126747
4 *521:A1 0.00013249
5 *495:A 0
6 *493:A1 4.36257e-05
7 *492:A1 0
8 *567:X 0.000185242
9 *171:66 0.000172372
10 *171:64 0.000508259
11 *171:60 0.000774441
12 *171:36 0.000381548
13 *171:24 0.00179187
14 *171:12 0.00102114
15 *171:10 0.000185242
16 *171:24 *172:39 0.000688888
17 *171:36 *172:39 8.62876e-05
18 *171:60 *172:39 0
19 *488:B1 *488:B2 0.000186041
20 *493:B2 *171:36 0.000139692
21 *505:A3 *171:60 6.9908e-05
22 *505:B2 *171:60 2.31687e-05
23 *552:B *493:A1 0.000100062
24 *31:10 *171:24 0.000257731
25 *32:6 *171:24 0.000322387
26 *34:14 *171:24 0.000271458
27 *35:16 *171:24 3.27399e-05
28 *45:14 *171:24 2.60152e-05
29 *45:14 *171:36 2.04506e-05
30 *65:18 *488:B2 0.000362518
31 *65:18 *521:A1 7.97439e-06
32 *79:35 *171:64 3.60842e-05
33 *79:41 *171:24 1.58201e-05
34 *79:41 *171:36 1.85903e-05
35 *79:43 *171:60 7.58527e-05
36 *83:10 *171:64 7.12953e-05
37 *87:44 *171:64 1.33792e-05
38 *109:33 *521:A1 1.12349e-05
39 *109:57 *488:B2 0.000164025
40 *109:57 *521:A1 8.06993e-05
41 *109:57 *171:66 5.00237e-05
42 *139:12 *171:60 7.97587e-05
43 *141:10 *521:A1 0.000233359
44 *142:10 *171:60 0.000133049
45 *142:10 *171:64 0.000338973
46 *143:19 *171:10 2.35118e-06
47 *150:23 *493:A1 0.000142173
48 *150:23 *171:36 4.65192e-05
49 *167:8 *171:64 0.000415028
50 *167:16 *171:36 1.68817e-05
51 *168:8 *171:10 5.5792e-05
*RES
1 *567:X *171:10 40.8793 
2 *171:10 *171:12 15 
3 *171:12 *171:24 40.0436 
4 *171:24 *171:36 49.93 
5 *171:36 *492:A1 23 
6 *171:36 *493:A1 24.5743 
7 *171:24 *171:60 36.9807 
8 *171:60 *171:64 23.2443 
9 *171:64 *171:66 1.09786 
10 *171:66 *495:A 23 
11 *171:66 *521:A1 26.9979 
12 *171:64 *488:B2 28.5721 
13 *171:60 *494:A1 38 
14 *171:12 *497:A 23 
*END

*D_NET *172 0.011173
*CONN
*I *496:A1 I *D sky130_fd_sc_hd__a221o_1
*I *516:A I *D sky130_fd_sc_hd__nand2_1
*I *517:A I *D sky130_fd_sc_hd__or2_1
*I *536:A1 I *D sky130_fd_sc_hd__a2111oi_1
*I *519:A1_N I *D sky130_fd_sc_hd__a2bb2o_1
*I *506:A I *D sky130_fd_sc_hd__inv_2
*I *568:X O *D sky130_fd_sc_hd__clkbuf_2
*CAP
1 *496:A1 0.000124054
2 *516:A 4.64665e-05
3 *517:A 0
4 *536:A1 0
5 *519:A1_N 0
6 *506:A 4.93533e-05
7 *568:X 0.000435736
8 *172:76 0.000354127
9 *172:61 0.000682795
10 *172:57 0.00062939
11 *172:49 0.000777928
12 *172:39 0.00132901
13 *172:18 0.00110865
14 *172:10 0.000720819
15 *172:57 *173:53 6.64159e-06
16 *172:61 *173:53 0.00037863
17 *172:76 *173:53 4.69418e-05
18 *493:B1 *172:39 0
19 *519:A2_N *172:61 5.58003e-05
20 *519:A2_N *172:76 5.82853e-05
21 *536:A2 *172:76 5.50106e-05
22 *33:14 *172:10 0.000167676
23 *34:14 *172:18 0.000128309
24 *35:16 *172:10 0.000123864
25 *45:8 *506:A 6.17437e-06
26 *45:14 *172:39 0.000987626
27 *46:6 *516:A 0.000100061
28 *49:10 *172:61 2.69681e-05
29 *51:10 *172:39 0.000214281
30 *65:8 *172:76 6.53382e-05
31 *65:18 *172:76 0
32 *84:16 *172:61 0.000110894
33 *84:16 *172:76 2.193e-05
34 *87:52 *496:A1 3.81033e-05
35 *89:56 *172:76 0.000410328
36 *105:24 *172:57 8.57577e-05
37 *109:31 *172:49 7.90099e-05
38 *109:31 *172:57 2.56281e-05
39 *109:43 *496:A1 9.92345e-05
40 *109:43 *172:49 0.000274893
41 *129:22 *172:10 6.39204e-05
42 *129:22 *172:18 7.53384e-06
43 *141:10 *172:39 6.07397e-05
44 *151:48 *172:57 0.000139856
45 *168:14 *172:10 0.000278042
46 *170:16 *172:49 1.21972e-05
47 *170:29 *496:A1 9.80703e-06
48 *171:24 *172:39 0.000688888
49 *171:36 *172:39 8.62876e-05
50 *171:60 *172:39 0
*RES
1 *568:X *172:10 48.5436 
2 *172:10 *172:18 19.9507 
3 *172:18 *506:A 23.6214 
4 *172:18 *172:39 49.285 
5 *172:39 *172:49 22.8921 
6 *172:49 *172:57 19.93 
7 *172:57 *172:61 8.61714 
8 *172:61 *519:A1_N 23 
9 *172:61 *172:76 38.0164 
10 *172:76 *536:A1 23 
11 *172:57 *517:A 23 
12 *172:49 *516:A 39.0979 
13 *172:39 *496:A1 25.0714 
*END

*D_NET *173 0.0142663
*CONN
*I *530:A I *D sky130_fd_sc_hd__nand2_1
*I *533:A1 I *D sky130_fd_sc_hd__a31o_1
*I *535:A I *D sky130_fd_sc_hd__nor2_1
*I *519:B2 I *D sky130_fd_sc_hd__a2bb2o_1
*I *538:B I *D sky130_fd_sc_hd__and2b_1
*I *526:A I *D sky130_fd_sc_hd__xor2_1
*I *546:A1 I *D sky130_fd_sc_hd__a22oi_1
*I *531:A I *D sky130_fd_sc_hd__or2_1
*I *569:X O *D sky130_fd_sc_hd__buf_2
*CAP
1 *530:A 0
2 *533:A1 1.00128e-05
3 *535:A 7.49019e-06
4 *519:B2 0
5 *538:B 0
6 *526:A 0
7 *546:A1 0.000497976
8 *531:A 0.000341919
9 *569:X 0.000205724
10 *173:78 0.000242001
11 *173:70 0.000754541
12 *173:53 0.00265336
13 *173:45 0.0020663
14 *173:37 0.00120079
15 *173:31 0.000966774
16 *173:27 0.000186922
17 *173:10 0.000547643
18 *173:53 *174:46 0.000137533
19 *440:B *173:45 9.28078e-06
20 *461:B1 *173:37 5.67058e-05
21 *525:A *173:53 3.20631e-05
22 *526:B *173:78 8.51329e-05
23 *533:A3 *533:A1 1.33082e-05
24 *533:A3 *173:37 0.00043826
25 *533:B1 *173:31 5.56279e-05
26 *536:C1 *535:A 5.50106e-05
27 *536:C1 *173:37 7.55481e-05
28 *538:A_N *173:78 3.06803e-05
29 *541:A *546:A1 4.95081e-05
30 *541:B *546:A1 0.000177604
31 *542:A2 *173:70 8.38067e-05
32 *546:A2 *546:A1 1.46586e-05
33 *546:B1 *546:A1 5.35848e-05
34 *547:B1 *173:53 2.37393e-05
35 *548:A1 *173:53 3.81949e-05
36 *59:8 *531:A 0.000214852
37 *60:10 *531:A 4.84129e-06
38 *67:10 *546:A1 0
39 *69:12 *546:A1 2.65879e-05
40 *71:8 *173:70 0.000117592
41 *79:60 *173:53 0.000188526
42 *79:60 *173:70 0
43 *84:16 *173:45 3.26241e-05
44 *84:16 *173:53 3.92621e-05
45 *84:25 *173:45 6.10638e-05
46 *89:56 *173:37 0
47 *89:85 *173:45 0.000208028
48 *94:40 *173:78 0.000197479
49 *100:10 *531:A 3.79743e-05
50 *100:10 *173:10 0.000169089
51 *105:24 *173:53 0.000147257
52 *109:18 *546:A1 5.3304e-05
53 *151:21 *173:78 0
54 *151:48 *173:53 1.89669e-05
55 *152:19 *531:A 0.00041901
56 *152:28 *533:A1 3.23857e-06
57 *152:28 *173:31 5.08846e-05
58 *152:28 *173:37 1.47394e-05
59 *152:45 *173:37 6.82228e-06
60 *152:45 *173:45 0.000157643
61 *152:59 *546:A1 0.000117904
62 *152:59 *173:70 4.30407e-05
63 *163:12 *173:45 0
64 *169:14 *173:45 0.000391698
65 *172:57 *173:53 6.64159e-06
66 *172:61 *173:53 0.00037863
67 *172:76 *173:53 4.69418e-05
*RES
1 *569:X *173:10 41.3557 
2 *173:10 *531:A 46.12 
3 *173:10 *173:27 15 
4 *173:27 *173:31 3.02429 
5 *173:31 *173:37 11.4964 
6 *173:37 *173:45 39.3007 
7 *173:45 *173:53 38.055 
8 *173:53 *546:A1 47.57 
9 *173:53 *173:70 25.005 
10 *173:70 *173:78 35.1371 
11 *173:78 *526:A 23 
12 *173:70 *538:B 23 
13 *173:45 *519:B2 23 
14 *173:37 *535:A 23.6214 
15 *173:31 *533:A1 23.4971 
16 *173:27 *530:A 23 
*END

*D_NET *174 0.0135277
*CONN
*I *534:A1 I *D sky130_fd_sc_hd__a22o_1
*I *540:A I *D sky130_fd_sc_hd__nand2_1
*I *539:A I *D sky130_fd_sc_hd__or2_1
*I *547:A1 I *D sky130_fd_sc_hd__o221a_1
*I *570:X O *D sky130_fd_sc_hd__clkbuf_2
*CAP
1 *534:A1 0
2 *540:A 0
3 *539:A 0.00015239
4 *547:A1 0
5 *570:X 0.000387027
6 *174:46 0.000259697
7 *174:36 0.00204376
8 *174:22 0.00215437
9 *174:10 0.00227338
10 *174:8 0.00213772
11 *174:22 *451:B_N 0.00011529
12 result[1] *174:10 4.96982e-05
13 zero *174:10 9.1176e-05
14 *445:A *174:36 0.000100061
15 *451:A *174:22 2.03764e-06
16 *464:A2 *174:10 0
17 *532:C *174:22 0.000206125
18 *534:A2 *174:36 0.000222668
19 *534:B1 *174:22 1.34914e-05
20 *534:B1 *174:36 2.46906e-05
21 *534:B2 *174:22 4.76953e-05
22 *540:B *539:A 9.76121e-05
23 *547:B1 *174:46 0.000240928
24 *548:A1 *174:46 6.17437e-06
25 *548:B1 *174:46 8.48502e-06
26 *554:A *174:10 2.33476e-05
27 *572:A *174:36 0.000149626
28 *575:A *174:8 6.86244e-05
29 *9:13 *174:10 4.27008e-05
30 *24:10 *174:8 5.1614e-06
31 *68:10 *174:36 2.93845e-05
32 *68:10 *174:46 0.000136486
33 *80:14 *174:46 0.000371357
34 *84:31 *174:36 0.000605449
35 *94:10 *174:36 5.67058e-05
36 *94:10 *174:46 1.37246e-05
37 *100:8 *174:22 0.000135037
38 *102:65 *174:10 0.000163985
39 *102:65 *174:22 5.67058e-05
40 *109:10 *174:36 5.79559e-05
41 *147:66 *174:10 0.000291331
42 *154:77 *174:36 0.000187129
43 *159:23 *174:10 0
44 *169:10 *174:36 0.000361027
45 *170:14 *174:46 0
46 *173:53 *174:46 0.000137533
*RES
1 *570:X *174:8 43.3857 
2 *174:8 *174:10 37.8243 
3 *174:10 *174:22 25.1086 
4 *174:22 *174:36 32.5629 
5 *174:36 *174:46 37.4986 
6 *174:46 *547:A1 23 
7 *174:36 *539:A 26.5214 
8 *174:36 *540:A 23 
9 *174:22 *534:A1 23 
*END

*D_NET *175 0.0116597
*CONN
*I *451:B_N I *D sky130_fd_sc_hd__or2b_1
*I *435:A1 I *D sky130_fd_sc_hd__a32o_1
*I *446:A1 I *D sky130_fd_sc_hd__a21bo_1
*I *447:C I *D sky130_fd_sc_hd__nand3b_1
*I *465:A1 I *D sky130_fd_sc_hd__o21a_1
*I *498:A1 I *D sky130_fd_sc_hd__o41a_1
*I *431:A1_N I *D sky130_fd_sc_hd__a2bb2o_1
*I *432:A1 I *D sky130_fd_sc_hd__a21oi_1
*I *438:A1 I *D sky130_fd_sc_hd__o21a_1
*I *571:X O *D sky130_fd_sc_hd__buf_2
*CAP
1 *451:B_N 0.00023211
2 *435:A1 1.36356e-05
3 *446:A1 6.69168e-05
4 *447:C 1.22897e-05
5 *465:A1 5.62801e-05
6 *498:A1 0.000123869
7 *431:A1_N 0
8 *432:A1 0
9 *438:A1 0
10 *571:X 0.00019593
11 *175:77 0.000347192
12 *175:69 0.00022389
13 *175:67 0.000111474
14 *175:65 0.000958057
15 *175:49 0.000199402
16 *175:41 0.000554791
17 *175:31 0.00145419
18 *175:27 0.000326358
19 *175:14 0.000332801
20 *175:10 0.000588859
21 *432:B1 *175:49 5.50049e-05
22 *435:A3 *435:A1 0
23 *435:A3 *175:31 0.000191633
24 *435:A3 *175:41 2.4754e-05
25 *435:A3 *175:65 0.000321347
26 *435:B2 *451:B_N 0.000248979
27 *435:B2 *175:27 4.2812e-06
28 *446:A2 *446:A1 0.000180224
29 *446:A2 *175:69 4.08664e-05
30 *447:B *447:C 1.22308e-05
31 *447:B *175:69 9.89948e-05
32 *451:A *451:B_N 8.06804e-06
33 *461:B1 *175:65 0.000632277
34 *461:B2 *175:65 4.10755e-05
35 *463:A1 *446:A1 2.93845e-05
36 *472:B1 *175:65 3.76421e-05
37 *498:A2 *447:C 2.77232e-05
38 *498:A2 *498:A1 7.44257e-05
39 *498:A2 *175:77 6.6426e-05
40 *534:B1 *175:65 0.00014411
41 *534:B2 *451:B_N 2.95757e-05
42 *552:A *175:65 5.2949e-05
43 *27:16 *175:49 4.6318e-06
44 *80:64 *175:41 0
45 *81:8 *175:49 7.8128e-05
46 *84:45 *435:A1 2.07047e-05
47 *84:45 *175:27 2.93335e-05
48 *84:45 *175:31 9.75213e-05
49 *84:45 *175:65 1.22803e-05
50 *85:10 *175:10 0
51 *85:10 *175:14 0
52 *90:10 *175:41 8.25782e-05
53 *92:82 *446:A1 6.53382e-05
54 *92:82 *175:69 9.6103e-05
55 *92:82 *175:77 0.00010018
56 *94:93 *175:77 0
57 *96:8 *175:65 3.70094e-05
58 *96:8 *175:77 0
59 *105:44 *175:65 3.85729e-05
60 *119:10 *175:65 0.000169674
61 *122:14 *175:65 0.000174417
62 *146:18 *175:49 0.000188926
63 *146:35 *175:41 0
64 *146:35 *175:49 3.70187e-05
65 *146:39 *175:41 4.39725e-05
66 *146:63 *175:31 2.02872e-05
67 *146:71 *175:14 4.2812e-06
68 *146:71 *175:27 6.54906e-05
69 *147:25 *175:69 1.76557e-05
70 *147:25 *175:77 9.24795e-06
71 *147:27 *447:C 1.14154e-05
72 *147:27 *498:A1 3.91386e-05
73 *147:51 *465:A1 0.000140958
74 *147:51 *175:77 1.14452e-05
75 *149:8 *175:10 0.000100069
76 *149:14 *451:B_N 0.000503851
77 *149:14 *175:10 0.000124829
78 *156:12 *175:41 0.000140259
79 *156:22 *175:41 9.19684e-06
80 *158:24 *175:41 8.47428e-05
81 *158:24 *175:49 0
82 *158:33 *175:27 1.34354e-05
83 *158:33 *175:65 0
84 *163:12 *175:41 8.64259e-05
85 *163:12 *175:65 0.000291991
86 *166:8 *175:65 8.85189e-05
87 *168:20 *465:A1 6.32792e-05
88 *168:20 *175:65 0
89 *168:20 *175:77 5.81066e-05
90 *169:18 *175:65 0.000263347
91 *174:22 *451:B_N 0.00011529
*RES
1 *571:X *175:10 41.3039 
2 *175:10 *175:14 2.2475 
3 *175:14 *438:A1 38 
4 *175:14 *175:27 18.5836 
5 *175:27 *175:31 3.50071 
6 *175:31 *175:41 37.2914 
7 *175:41 *175:49 34.2879 
8 *175:49 *432:A1 23 
9 *175:41 *431:A1_N 23 
10 *175:31 *175:65 39.94 
11 *175:65 *175:67 15 
12 *175:67 *175:69 2.05071 
13 *175:69 *175:77 18.1486 
14 *175:77 *498:A1 40.5686 
15 *175:77 *465:A1 39.9057 
16 *175:69 *447:C 23.4971 
17 *175:67 *446:A1 25.0507 
18 *175:27 *435:A1 23.4971 
19 *175:10 *451:B_N 46.2546 
*END
