*SPEF "ieee 1481-1999"
*DESIGN "uart_top"
*DATE "11:11:11 Fri 11 11, 1111"
*VENDOR "OpenRCX"
*PROGRAM "Parallel Extraction"
*VERSION "1.0"
*DESIGN_FLOW "NAME_SCOPE LOCAL" "PIN_CAP NONE"
*DIVIDER /
*DELIMITER :
*BUS_DELIMITER []
*T_UNIT 1 NS
*C_UNIT 1 PF
*R_UNIT 1 OHM
*L_UNIT 1 HENRY

*NAME_MAP
*3 clk
*4 reset
*5 rx_data[0]
*6 rx_data[1]
*7 rx_data[2]
*8 rx_data[3]
*9 rx_data[4]
*10 rx_data[5]
*11 rx_data[6]
*12 rx_data[7]
*13 rx_done
*14 start
*15 tx_data[0]
*16 tx_data[1]
*17 tx_data[2]
*18 tx_data[3]
*19 tx_data[4]
*20 tx_data[5]
*21 tx_data[6]
*22 tx_data[7]
*23 tx_done
*24 _000_
*25 _001_
*26 _002_
*27 _003_
*28 _004_
*29 _005_
*30 _006_
*31 _007_
*32 _008_
*33 _009_
*34 _010_
*35 _011_
*36 _012_
*37 _013_
*38 _014_
*39 _015_
*40 _016_
*41 _017_
*42 _018_
*43 _019_
*44 _020_
*45 _021_
*46 _022_
*47 _023_
*48 _024_
*49 _025_
*50 _026_
*51 _027_
*52 _028_
*53 _029_
*54 _030_
*55 _031_
*56 _032_
*57 _033_
*58 _034_
*59 _035_
*60 _036_
*61 _037_
*62 _038_
*63 _039_
*64 _040_
*65 _041_
*66 _042_
*67 _043_
*68 _044_
*69 _045_
*70 _046_
*71 _047_
*72 _048_
*73 _049_
*74 _050_
*75 _051_
*76 _052_
*77 _053_
*78 _054_
*79 _055_
*80 _056_
*81 _057_
*82 _058_
*83 _059_
*84 _060_
*85 _061_
*86 _062_
*87 _063_
*88 _064_
*89 _065_
*90 _066_
*91 _067_
*92 _068_
*93 _069_
*94 _070_
*95 _071_
*96 _072_
*97 _073_
*98 _074_
*99 _075_
*100 _076_
*101 _077_
*102 _078_
*103 _079_
*104 _080_
*105 _081_
*106 _082_
*107 _083_
*108 _084_
*109 _085_
*110 _086_
*111 _087_
*112 _088_
*113 _089_
*114 _090_
*115 _091_
*116 _092_
*117 _093_
*118 _094_
*119 _095_
*120 _096_
*121 _097_
*122 _098_
*123 _099_
*124 _100_
*125 _101_
*126 _102_
*127 _103_
*128 _104_
*129 _105_
*130 _106_
*131 _107_
*132 _108_
*133 _109_
*134 _110_
*135 _111_
*136 _112_
*137 _113_
*138 _114_
*139 clknet_0_clk
*140 clknet_2_0__leaf_clk
*141 clknet_2_1__leaf_clk
*142 clknet_2_2__leaf_clk
*143 clknet_2_3__leaf_clk
*144 net1
*145 net10
*146 net11
*147 net12
*148 net13
*149 net14
*150 net15
*151 net16
*152 net17
*153 net18
*154 net19
*155 net2
*156 net20
*157 net21
*158 net22
*159 net23
*160 net24
*161 net25
*162 net26
*163 net27
*164 net28
*165 net29
*166 net3
*167 net30
*168 net31
*169 net32
*170 net33
*171 net34
*172 net35
*173 net36
*174 net37
*175 net38
*176 net39
*177 net4
*178 net40
*179 net41
*180 net42
*181 net43
*182 net44
*183 net45
*184 net46
*185 net47
*186 net48
*187 net49
*188 net5
*189 net50
*190 net51
*191 net52
*192 net53
*193 net54
*194 net55
*195 net56
*196 net6
*197 net7
*198 net8
*199 net9
*200 rx_inst\.bit_count\[0\]
*201 rx_inst\.bit_count\[1\]
*202 rx_inst\.bit_count\[2\]
*203 rx_inst\.rx
*204 rx_inst\.state\[0\]
*205 rx_inst\.state\[1\]
*206 rx_inst\.state\[2\]
*207 rx_inst\.state\[3\]
*208 tx_inst\.bit_count\[0\]
*209 tx_inst\.bit_count\[1\]
*210 tx_inst\.bit_count\[2\]
*211 tx_inst\.data_reg\[0\]
*212 tx_inst\.data_reg\[1\]
*213 tx_inst\.data_reg\[2\]
*214 tx_inst\.data_reg\[3\]
*215 tx_inst\.data_reg\[4\]
*216 tx_inst\.data_reg\[5\]
*217 tx_inst\.data_reg\[6\]
*218 tx_inst\.data_reg\[7\]
*219 tx_inst\.state\[0\]
*220 tx_inst\.state\[1\]
*221 tx_inst\.state\[2\]
*222 tx_inst\.state\[3\]
*223 FILLER_0_0_102
*224 FILLER_0_0_110
*225 FILLER_0_0_113
*226 FILLER_0_0_125
*227 FILLER_0_0_21
*228 FILLER_0_0_27
*229 FILLER_0_0_29
*230 FILLER_0_0_41
*231 FILLER_0_0_49
*232 FILLER_0_0_55
*233 FILLER_0_0_57
*234 FILLER_0_0_69
*235 FILLER_0_0_81
*236 FILLER_0_0_85
*237 FILLER_0_0_9
*238 FILLER_0_0_90
*239 FILLER_0_10_106
*240 FILLER_0_10_118
*241 FILLER_0_10_126
*242 FILLER_0_10_130
*243 FILLER_0_10_15
*244 FILLER_0_10_27
*245 FILLER_0_10_3
*246 FILLER_0_10_49
*247 FILLER_0_10_67
*248 FILLER_0_10_79
*249 FILLER_0_10_83
*250 FILLER_0_10_88
*251 FILLER_0_10_96
*252 FILLER_0_11_113
*253 FILLER_0_11_117
*254 FILLER_0_11_127
*255 FILLER_0_11_15
*256 FILLER_0_11_27
*257 FILLER_0_11_3
*258 FILLER_0_11_39
*259 FILLER_0_11_47
*260 FILLER_0_11_52
*261 FILLER_0_11_57
*262 FILLER_0_11_93
*263 FILLER_0_11_99
*264 FILLER_0_12_102
*265 FILLER_0_12_114
*266 FILLER_0_12_15
*267 FILLER_0_12_27
*268 FILLER_0_12_29
*269 FILLER_0_12_3
*270 FILLER_0_12_41
*271 FILLER_0_12_49
*272 FILLER_0_12_70
*273 FILLER_0_12_80
*274 FILLER_0_12_85
*275 FILLER_0_12_93
*276 FILLER_0_13_124
*277 FILLER_0_13_128
*278 FILLER_0_13_15
*279 FILLER_0_13_23
*280 FILLER_0_13_3
*281 FILLER_0_13_34
*282 FILLER_0_13_39
*283 FILLER_0_13_45
*284 FILLER_0_13_52
*285 FILLER_0_13_63
*286 FILLER_0_13_88
*287 FILLER_0_14_113
*288 FILLER_0_14_117
*289 FILLER_0_14_121
*290 FILLER_0_14_18
*291 FILLER_0_14_25
*292 FILLER_0_14_29
*293 FILLER_0_14_6
*294 FILLER_0_14_64
*295 FILLER_0_14_72
*296 FILLER_0_14_83
*297 FILLER_0_15_108
*298 FILLER_0_15_133
*299 FILLER_0_15_3
*300 FILLER_0_15_52
*301 FILLER_0_15_57
*302 FILLER_0_15_69
*303 FILLER_0_15_96
*304 FILLER_0_16_105
*305 FILLER_0_16_129
*306 FILLER_0_16_135
*307 FILLER_0_16_23
*308 FILLER_0_16_27
*309 FILLER_0_16_29
*310 FILLER_0_16_3
*311 FILLER_0_16_49
*312 FILLER_0_16_61
*313 FILLER_0_16_65
*314 FILLER_0_16_77
*315 FILLER_0_16_83
*316 FILLER_0_16_85
*317 FILLER_0_16_97
*318 FILLER_0_17_105
*319 FILLER_0_17_111
*320 FILLER_0_17_113
*321 FILLER_0_17_123
*322 FILLER_0_17_132
*323 FILLER_0_17_15
*324 FILLER_0_17_25
*325 FILLER_0_17_3
*326 FILLER_0_17_31
*327 FILLER_0_17_53
*328 FILLER_0_17_57
*329 FILLER_0_17_73
*330 FILLER_0_17_84
*331 FILLER_0_17_88
*332 FILLER_0_17_93
*333 FILLER_0_18_107
*334 FILLER_0_18_125
*335 FILLER_0_18_133
*336 FILLER_0_18_14
*337 FILLER_0_18_26
*338 FILLER_0_18_29
*339 FILLER_0_18_3
*340 FILLER_0_18_37
*341 FILLER_0_18_66
*342 FILLER_0_18_83
*343 FILLER_0_19_113
*344 FILLER_0_19_125
*345 FILLER_0_19_129
*346 FILLER_0_19_23
*347 FILLER_0_19_3
*348 FILLER_0_19_57
*349 FILLER_0_1_110
*350 FILLER_0_1_113
*351 FILLER_0_1_125
*352 FILLER_0_1_129
*353 FILLER_0_1_44
*354 FILLER_0_1_55
*355 FILLER_0_1_57
*356 FILLER_0_1_62
*357 FILLER_0_1_70
*358 FILLER_0_1_74
*359 FILLER_0_1_86
*360 FILLER_0_1_9
*361 FILLER_0_1_98
*362 FILLER_0_20_110
*363 FILLER_0_20_122
*364 FILLER_0_20_134
*365 FILLER_0_20_24
*366 FILLER_0_20_3
*367 FILLER_0_20_45
*368 FILLER_0_20_7
*369 FILLER_0_20_74
*370 FILLER_0_20_85
*371 FILLER_0_21_109
*372 FILLER_0_21_113
*373 FILLER_0_21_125
*374 FILLER_0_21_133
*375 FILLER_0_21_29
*376 FILLER_0_21_39
*377 FILLER_0_21_48
*378 FILLER_0_21_54
*379 FILLER_0_21_57
*380 FILLER_0_21_63
*381 FILLER_0_21_72
*382 FILLER_0_21_84
*383 FILLER_0_21_9
*384 FILLER_0_22_104
*385 FILLER_0_22_113
*386 FILLER_0_22_121
*387 FILLER_0_22_14
*388 FILLER_0_22_18
*389 FILLER_0_22_27
*390 FILLER_0_22_37
*391 FILLER_0_22_41
*392 FILLER_0_22_53
*393 FILLER_0_22_57
*394 FILLER_0_22_6
*395 FILLER_0_22_69
*396 FILLER_0_22_79
*397 FILLER_0_22_83
*398 FILLER_0_22_85
*399 FILLER_0_22_93
*400 FILLER_0_2_102
*401 FILLER_0_2_114
*402 FILLER_0_2_126
*403 FILLER_0_2_134
*404 FILLER_0_2_15
*405 FILLER_0_2_27
*406 FILLER_0_2_3
*407 FILLER_0_2_32
*408 FILLER_0_2_82
*409 FILLER_0_2_85
*410 FILLER_0_2_90
*411 FILLER_0_3_107
*412 FILLER_0_3_111
*413 FILLER_0_3_113
*414 FILLER_0_3_125
*415 FILLER_0_3_133
*416 FILLER_0_3_26
*417 FILLER_0_3_3
*418 FILLER_0_3_53
*419 FILLER_0_4_108
*420 FILLER_0_4_120
*421 FILLER_0_4_132
*422 FILLER_0_4_26
*423 FILLER_0_4_53
*424 FILLER_0_4_79
*425 FILLER_0_4_83
*426 FILLER_0_4_96
*427 FILLER_0_5_104
*428 FILLER_0_5_113
*429 FILLER_0_5_124
*430 FILLER_0_5_135
*431 FILLER_0_5_14
*432 FILLER_0_5_3
*433 FILLER_0_5_36
*434 FILLER_0_5_40
*435 FILLER_0_5_49
*436 FILLER_0_6_105
*437 FILLER_0_6_134
*438 FILLER_0_6_24
*439 FILLER_0_6_29
*440 FILLER_0_6_3
*441 FILLER_0_6_50
*442 FILLER_0_6_55
*443 FILLER_0_6_62
*444 FILLER_0_6_70
*445 FILLER_0_6_80
*446 FILLER_0_7_104
*447 FILLER_0_7_113
*448 FILLER_0_7_123
*449 FILLER_0_7_133
*450 FILLER_0_7_14
*451 FILLER_0_7_46
*452 FILLER_0_7_53
*453 FILLER_0_7_67
*454 FILLER_0_7_9
*455 FILLER_0_8_104
*456 FILLER_0_8_110
*457 FILLER_0_8_131
*458 FILLER_0_8_26
*459 FILLER_0_8_29
*460 FILLER_0_8_35
*461 FILLER_0_8_44
*462 FILLER_0_8_78
*463 FILLER_0_8_85
*464 FILLER_0_8_89
*465 FILLER_0_9_11
*466 FILLER_0_9_113
*467 FILLER_0_9_117
*468 FILLER_0_9_122
*469 FILLER_0_9_130
*470 FILLER_0_9_134
*471 FILLER_0_9_3
*472 FILLER_0_9_31
*473 FILLER_0_9_35
*474 FILLER_0_9_54
*475 FILLER_0_9_57
*476 FILLER_0_9_64
*477 FILLER_0_9_71
*478 FILLER_0_9_83
*479 FILLER_0_9_88
*480 PHY_0
*481 PHY_1
*482 PHY_10
*483 PHY_11
*484 PHY_12
*485 PHY_13
*486 PHY_14
*487 PHY_15
*488 PHY_16
*489 PHY_17
*490 PHY_18
*491 PHY_19
*492 PHY_2
*493 PHY_20
*494 PHY_21
*495 PHY_22
*496 PHY_23
*497 PHY_24
*498 PHY_25
*499 PHY_26
*500 PHY_27
*501 PHY_28
*502 PHY_29
*503 PHY_3
*504 PHY_30
*505 PHY_31
*506 PHY_32
*507 PHY_33
*508 PHY_34
*509 PHY_35
*510 PHY_36
*511 PHY_37
*512 PHY_38
*513 PHY_39
*514 PHY_4
*515 PHY_40
*516 PHY_41
*517 PHY_42
*518 PHY_43
*519 PHY_44
*520 PHY_45
*521 PHY_5
*522 PHY_6
*523 PHY_7
*524 PHY_8
*525 PHY_9
*526 TAP_46
*527 TAP_47
*528 TAP_48
*529 TAP_49
*530 TAP_50
*531 TAP_51
*532 TAP_52
*533 TAP_53
*534 TAP_54
*535 TAP_55
*536 TAP_56
*537 TAP_57
*538 TAP_58
*539 TAP_59
*540 TAP_60
*541 TAP_61
*542 TAP_62
*543 TAP_63
*544 TAP_64
*545 TAP_65
*546 TAP_66
*547 TAP_67
*548 TAP_68
*549 TAP_69
*550 TAP_70
*551 TAP_71
*552 TAP_72
*553 TAP_73
*554 TAP_74
*555 TAP_75
*556 TAP_76
*557 TAP_77
*558 TAP_78
*559 TAP_79
*560 TAP_80
*561 TAP_81
*562 TAP_82
*563 TAP_83
*564 TAP_84
*565 TAP_85
*566 TAP_86
*567 TAP_87
*568 TAP_88
*569 TAP_89
*570 TAP_90
*571 TAP_91
*572 TAP_92
*573 TAP_93
*574 TAP_94
*575 TAP_95
*576 _115_
*577 _116_
*578 _117_
*579 _118_
*580 _119_
*581 _120_
*582 _121_
*583 _122_
*584 _123_
*585 _124_
*586 _125_
*587 _126_
*588 _127_
*589 _128_
*590 _129_
*591 _130_
*592 _131_
*593 _132_
*594 _133_
*595 _134_
*596 _135_
*597 _136_
*598 _137_
*599 _138_
*600 _139_
*601 _140_
*602 _141_
*603 _142_
*604 _143_
*605 _144_
*606 _145_
*607 _146_
*608 _147_
*609 _148_
*610 _149_
*611 _150_
*612 _151_
*613 _152_
*614 _153_
*615 _154_
*616 _155_
*617 _156_
*618 _157_
*619 _158_
*620 _159_
*621 _160_
*622 _161_
*623 _162_
*624 _163_
*625 _164_
*626 _165_
*627 _166_
*628 _167_
*629 _168_
*630 _169_
*631 _170_
*632 _171_
*633 _172_
*634 _173_
*635 _174_
*636 _175_
*637 _176_
*638 _177_
*639 _178_
*640 _179_
*641 _180_
*642 _181_
*643 _182_
*644 _183_
*645 _184_
*646 _185_
*647 _186_
*648 _187_
*649 _188_
*650 _189_
*651 _190_
*652 _191_
*653 _192_
*654 _193_
*655 _194_
*656 _195_
*657 _196_
*658 _197_
*659 _198_
*660 _199_
*661 _200_
*662 _201_
*663 _202_
*664 _203_
*665 _204_
*666 _205_
*667 _206_
*668 _207_
*669 _208_
*670 _209_
*671 _210_
*672 _211_
*673 _212_
*674 _213_
*675 _214_
*676 _215_
*677 _216_
*678 _217_
*679 _218_
*680 _219_
*681 _220_
*682 _221_
*683 _222_
*684 _223_
*685 _224_
*686 _225_
*687 _226_
*688 _227_
*689 _228_
*690 _229_
*691 _230_
*692 _231_
*693 _232_
*694 _233_
*695 _234_
*696 _235_
*697 _236_
*698 _237_
*699 _238_
*700 _239_
*701 _240_
*702 _241_
*703 _242_
*704 _243_
*705 _244_
*706 _245_
*707 _246_
*708 _247_
*709 _248_
*710 _249_
*711 _250_
*712 _251_
*713 _252_
*714 _253_
*715 _254_
*716 _255_
*717 _256_
*718 _257_
*719 _258_
*720 _259_
*721 _260_
*722 _261_
*723 _262_
*724 clkbuf_0_clk
*725 clkbuf_2_0__f_clk
*726 clkbuf_2_1__f_clk
*727 clkbuf_2_2__f_clk
*728 clkbuf_2_3__f_clk
*729 hold1
*730 hold10
*731 hold11
*732 hold12
*733 hold13
*734 hold14
*735 hold15
*736 hold16
*737 hold17
*738 hold18
*739 hold19
*740 hold2
*741 hold20
*742 hold21
*743 hold22
*744 hold23
*745 hold24
*746 hold25
*747 hold26
*748 hold27
*749 hold28
*750 hold29
*751 hold3
*752 hold30
*753 hold31
*754 hold32
*755 hold33
*756 hold34
*757 hold35
*758 hold36
*759 hold4
*760 hold5
*761 hold6
*762 hold7
*763 hold8
*764 hold9
*765 input1
*766 input10
*767 input2
*768 input3
*769 input4
*770 input5
*771 input6
*772 input7
*773 input8
*774 input9
*775 output11
*776 output12
*777 output13
*778 output14
*779 output15
*780 output16
*781 output17
*782 output18
*783 output19
*784 output20

*PORTS
clk I
reset I
rx_data[0] O
rx_data[1] O
rx_data[2] O
rx_data[3] O
rx_data[4] O
rx_data[5] O
rx_data[6] O
rx_data[7] O
rx_done O
start I
tx_data[0] I
tx_data[1] I
tx_data[2] I
tx_data[3] I
tx_data[4] I
tx_data[5] I
tx_data[6] I
tx_data[7] I
tx_done O

*D_NET *3 0.00767904
*CONN
*P clk I
*I *724:A I *D sky130_fd_sc_hd__clkbuf_16
*CAP
1 clk 0.00208445
2 *724:A 0
3 *3:23 0.00161701
4 *3:13 0.00370146
5 *3:13 *589:A0 0
6 *3:13 *104:12 4.13395e-05
7 *3:13 *105:10 0.000182167
8 *3:13 *127:121 0
9 *3:13 *156:20 0
10 *3:23 *126:18 2.82105e-05
11 *3:23 *198:10 2.43996e-05
*RES
1 clk *3:13 42.9304 
2 *3:13 *3:23 35.078 
3 *3:23 *724:A 23 
*END

*D_NET *4 0.00201328
*CONN
*P reset I
*I *765:A I *D sky130_fd_sc_hd__clkbuf_4
*CAP
1 reset 0.00100664
2 *765:A 0
3 *4:13 0.00100664
*RES
1 reset *4:13 34.8036 
2 *4:13 *765:A 23 
*END

*D_NET *5 0.00100059
*CONN
*P rx_data[0] O
*I *775:X O *D sky130_fd_sc_hd__clkbuf_4
*CAP
1 rx_data[0] 0.000500296
2 *775:X 0.000500296
*RES
1 *775:X rx_data[0] 48.0257 
*END

*D_NET *6 0.00113514
*CONN
*P rx_data[1] O
*I *776:X O *D sky130_fd_sc_hd__clkbuf_4
*CAP
1 rx_data[1] 0.000567569
2 *776:X 0.000567569
*RES
1 *776:X rx_data[1] 48.9786 
*END

*D_NET *7 0.000638185
*CONN
*P rx_data[2] O
*I *777:X O *D sky130_fd_sc_hd__clkbuf_4
*CAP
1 rx_data[2] 0.000319093
2 *777:X 0.000319093
3 rx_data[2] *12:8 0
*RES
1 *777:X rx_data[2] 49.6532 
*END

*D_NET *8 0.000528109
*CONN
*P rx_data[3] O
*I *778:X O *D sky130_fd_sc_hd__clkbuf_4
*CAP
1 rx_data[3] 0.000264054
2 *778:X 0.000264054
*RES
1 *778:X rx_data[3] 49.5289 
*END

*D_NET *9 0.000537995
*CONN
*P rx_data[4] O
*I *779:X O *D sky130_fd_sc_hd__clkbuf_4
*CAP
1 rx_data[4] 0.000262626
2 *779:X 0.000262626
3 rx_data[4] *155:10 1.27424e-05
*RES
1 *779:X rx_data[4] 47.6145 
*END

*D_NET *10 0.000977836
*CONN
*P rx_data[5] O
*I *780:X O *D sky130_fd_sc_hd__clkbuf_4
*CAP
1 rx_data[5] 0.0002917
2 *780:X 0.000197218
3 *10:10 0.000488918
4 *10:10 *76:10 0
5 *10:10 *141:74 0
*RES
1 *780:X *10:10 49.8425 
2 *10:10 rx_data[5] 1.08267 
*END

*D_NET *11 0.000756843
*CONN
*P rx_data[6] O
*I *781:X O *D sky130_fd_sc_hd__clkbuf_4
*CAP
1 rx_data[6] 0.000281894
2 *781:X 0.000281894
3 rx_data[6] *146:21 6.54744e-05
4 rx_data[6] *152:21 0.00012758
*RES
1 *781:X rx_data[6] 48.5734 
*END

*D_NET *12 0.00149177
*CONN
*P rx_data[7] O
*I *782:X O *D sky130_fd_sc_hd__clkbuf_4
*CAP
1 rx_data[7] 0.000372805
2 *782:X 0.000373081
3 *12:8 0.000745886
4 rx_data[2] *12:8 0
*RES
1 *782:X *12:8 45.2914 
2 *12:8 rx_data[7] 8.34786 
*END

*D_NET *13 0.000740866
*CONN
*P rx_done O
*I *783:X O *D sky130_fd_sc_hd__clkbuf_4
*CAP
1 rx_done 0.000370433
2 *783:X 0.000370433
*RES
1 *783:X rx_done 45.9957 
*END

*D_NET *14 0.00146277
*CONN
*P start I
*I *767:A I *D sky130_fd_sc_hd__buf_1
*CAP
1 start 0.000731385
2 *767:A 0
3 *14:9 0.000731385
*RES
1 start *14:9 30.515 
2 *14:9 *767:A 23 
*END

*D_NET *15 0.00101097
*CONN
*P tx_data[0] I
*I *768:A I *D sky130_fd_sc_hd__clkbuf_1
*CAP
1 tx_data[0] 0.00048514
2 *768:A 0.00048514
3 *768:A *166:12 4.06849e-05
*RES
1 tx_data[0] *768:A 48.2743 
*END

*D_NET *16 0.00129377
*CONN
*P tx_data[1] I
*I *769:A I *D sky130_fd_sc_hd__clkbuf_1
*CAP
1 tx_data[1] 0.000553744
2 *769:A 0
3 *16:13 0.000553744
4 *16:13 *151:16 9.8203e-05
5 *16:13 *218:14 8.80821e-05
*RES
1 tx_data[1] *16:13 27.325 
2 *16:13 *769:A 23 
*END

*D_NET *17 0.000690789
*CONN
*P tx_data[2] I
*I *770:A I *D sky130_fd_sc_hd__buf_1
*CAP
1 tx_data[2] 0.000345394
2 *770:A 0
3 *17:15 0.000345394
4 *17:15 *152:21 0
*RES
1 tx_data[2] *17:15 27.9582 
2 *17:15 *770:A 23 
*END

*D_NET *18 0.00240766
*CONN
*P tx_data[3] I
*I *771:A I *D sky130_fd_sc_hd__clkbuf_1
*CAP
1 tx_data[3] 0.000978687
2 *771:A 0
3 *18:13 0.000978687
4 *18:13 *689:A1 0
5 *18:13 *133:10 0
6 *18:13 *145:8 0.000177899
7 *18:13 *151:16 0.000272383
*RES
1 tx_data[3] *18:13 35.5377 
2 *18:13 *771:A 23 
*END

*D_NET *19 0.00117321
*CONN
*P tx_data[4] I
*I *772:A I *D sky130_fd_sc_hd__clkbuf_1
*CAP
1 tx_data[4] 0.000576864
2 *772:A 0
3 *19:9 0.000576864
4 *19:9 *197:8 1.94812e-05
*RES
1 tx_data[4] *19:9 27.035 
2 *19:9 *772:A 23 
*END

*D_NET *20 0.00100701
*CONN
*P tx_data[5] I
*I *773:A I *D sky130_fd_sc_hd__buf_1
*CAP
1 tx_data[5] 0.000493767
2 *773:A 0.000493767
3 *773:A *198:8 1.94812e-05
*RES
1 tx_data[5] *773:A 48.2743 
*END

*D_NET *21 0.000686181
*CONN
*P tx_data[6] I
*I *774:A I *D sky130_fd_sc_hd__clkbuf_1
*CAP
1 tx_data[6] 0.00034309
2 *774:A 0.00034309
*RES
1 tx_data[6] *774:A 49.1918 
*END

*D_NET *22 0.00106989
*CONN
*P tx_data[7] I
*I *766:A I *D sky130_fd_sc_hd__clkbuf_1
*CAP
1 tx_data[7] 0.000534943
2 *766:A 0.000534943
*RES
1 tx_data[7] *766:A 49.0821 
*END

*D_NET *23 0.000747088
*CONN
*P tx_done O
*I *784:X O *D sky130_fd_sc_hd__buf_2
*CAP
1 tx_done 0.000281231
2 *784:X 0.000281231
3 tx_done *155:10 0.000184627
*RES
1 *784:X tx_done 49.1918 
*END

*D_NET *24 0.00214691
*CONN
*I *691:D I *D sky130_fd_sc_hd__dfstp_1
*I *611:B1 I *D sky130_fd_sc_hd__o22a_1
*I *610:X O *D sky130_fd_sc_hd__o21a_1
*CAP
1 *691:D 0
2 *611:B1 8.74291e-05
3 *610:X 0.000182495
4 *24:21 0.000112645
5 *24:6 0.000382569
6 *611:B1 *611:A2 2.60289e-05
7 *611:B1 *91:10 0.000189848
8 *611:B1 *202:100 3.00511e-05
9 *611:B1 *207:34 6.17437e-06
10 *24:6 *580:B 0.000278215
11 *24:6 *91:10 0.000267776
12 *24:6 *142:36 0.000404636
13 *24:6 *207:34 0.000104729
14 *24:21 *198:10 7.4315e-05
*RES
1 *610:X *24:6 29.815 
2 *24:6 *611:B1 25.9 
3 *24:6 *24:21 32.2579 
4 *24:21 *691:D 23 
*END

*D_NET *25 0.000731147
*CONN
*I *693:D I *D sky130_fd_sc_hd__dfrtp_1
*I *643:Y O *D sky130_fd_sc_hd__nor2_1
*CAP
1 *693:D 0.000194962
2 *643:Y 0.000108708
3 *25:8 0.00030367
4 *693:D *206:10 7.88512e-05
5 *25:8 *206:10 4.49561e-05
*RES
1 *643:Y *25:8 40.2579 
2 *25:8 *693:D 41.48 
*END

*D_NET *26 0.0010337
*CONN
*I *705:D I *D sky130_fd_sc_hd__dfrtp_1
*I *637:Y O *D sky130_fd_sc_hd__nor2_1
*CAP
1 *705:D 0
2 *637:Y 0.000388037
3 *26:10 0.000388037
4 *26:10 *714:CLK 0.000111312
5 *26:10 *45:8 4.04496e-05
6 *26:10 *144:12 0
7 *26:10 *188:26 0.000105861
*RES
1 *637:Y *26:10 45.7264 
2 *26:10 *705:D 38 
*END

*D_NET *27 0.00118539
*CONN
*I *706:D I *D sky130_fd_sc_hd__dfrtp_1
*I *645:X O *D sky130_fd_sc_hd__clkbuf_1
*CAP
1 *706:D 0.000179468
2 *645:X 0.000109874
3 *27:8 0.000289343
4 *706:D *706:CLK 5.50106e-05
5 *706:D *161:45 0.000102696
6 *27:8 *143:10 0.000111041
7 *27:8 *143:45 3.53698e-05
8 *27:8 *198:10 0.000302592
*RES
1 *645:X *27:8 42.0186 
2 *27:8 *706:D 42.1429 
*END

*D_NET *28 0.000560795
*CONN
*I *759:A I *D sky130_fd_sc_hd__dlygate4sd3_1
*I *633:X O *D sky130_fd_sc_hd__a21o_1
*CAP
1 *759:A 8.05313e-05
2 *633:X 8.05313e-05
3 *759:A *140:40 1.94693e-05
4 *759:A *159:28 0.000107892
5 *759:A *167:20 0.000272372
*RES
1 *633:X *759:A 49.0036 
*END

*D_NET *29 0.000139982
*CONN
*I *738:A I *D sky130_fd_sc_hd__dlygate4sd3_1
*I *636:X O *D sky130_fd_sc_hd__a32o_1
*CAP
1 *738:A 1.49804e-05
2 *636:X 1.49804e-05
3 *738:A *636:A2 5.50106e-05
4 *738:A *636:A3 5.50106e-05
*RES
1 *636:X *738:A 46.6214 
*END

*D_NET *30 0.000392051
*CONN
*I *703:D I *D sky130_fd_sc_hd__dfstp_1
*I *632:X O *D sky130_fd_sc_hd__a21o_1
*CAP
1 *703:D 0
2 *632:X 0.000131859
3 *30:10 0.000131859
4 *30:10 *127:96 5.79559e-05
5 *30:10 *161:45 7.03766e-05
*RES
1 *632:X *30:10 40.5271 
2 *30:10 *703:D 38 
*END

*D_NET *31 0.000421186
*CONN
*I *740:A I *D sky130_fd_sc_hd__dlygate4sd3_1
*I *634:X O *D sky130_fd_sc_hd__a21o_1
*CAP
1 *740:A 9.77032e-05
2 *634:X 6.86306e-05
3 *31:8 0.000166334
4 *31:8 *157:10 8.85189e-05
*RES
1 *634:X *31:8 39.2014 
2 *31:8 *740:A 39.9471 
*END

*D_NET *32 0.00225845
*CONN
*I *673:C I *D sky130_fd_sc_hd__and3_1
*I *691:SET_B I *D sky130_fd_sc_hd__dfstp_1
*I *646:Y O *D sky130_fd_sc_hd__inv_2
*CAP
1 *673:C 0.00027604
2 *691:SET_B 0.000245315
3 *646:Y 4.24857e-05
4 *32:8 0.00056384
5 *673:C *577:A 0.000136292
6 *673:C *673:B 1.14762e-05
7 *673:C *174:10 0.000161961
8 *673:C *198:10 0
9 *691:SET_B *577:A 7.03663e-05
10 *691:SET_B *82:83 0
11 *691:SET_B *126:30 0.000245481
12 *691:SET_B *142:62 0.000368653
13 *691:SET_B *174:10 8.15327e-05
14 *32:8 *82:83 5.50106e-05
*RES
1 *646:Y *32:8 38.6214 
2 *32:8 *691:SET_B 22.1879 
3 *32:8 *673:C 44.3179 
*END

*D_NET *33 0.00078309
*CONN
*I *692:RESET_B I *D sky130_fd_sc_hd__dfrtp_2
*I *648:Y O *D sky130_fd_sc_hd__inv_2
*CAP
1 *692:RESET_B 3.27288e-05
2 *648:Y 0.000238754
3 *33:10 0.000271483
4 *692:RESET_B *701:CLK 2.56078e-05
5 *33:10 *616:A1 0.000151624
6 *33:10 *110:12 2.4754e-05
7 *33:10 *166:14 3.81391e-05
*RES
1 *648:Y *33:10 42.0807 
2 *33:10 *692:RESET_B 15.5489 
*END

*D_NET *34 0.000364541
*CONN
*I *693:RESET_B I *D sky130_fd_sc_hd__dfrtp_1
*I *649:Y O *D sky130_fd_sc_hd__inv_2
*CAP
1 *693:RESET_B 0.000117698
2 *649:Y 0.000117698
3 *693:RESET_B *126:75 5.67058e-05
4 *693:RESET_B *206:10 7.24392e-05
*RES
1 *649:Y *693:RESET_B 25.9311 
*END

*D_NET *35 0.00111464
*CONN
*I *694:RESET_B I *D sky130_fd_sc_hd__dfrtp_1
*I *650:Y O *D sky130_fd_sc_hd__inv_2
*CAP
1 *694:RESET_B 9.17791e-05
2 *650:Y 0.00032185
3 *35:10 0.000413629
4 *694:RESET_B *694:CLK 4.87251e-05
5 *35:10 *126:30 2.01531e-05
6 *35:10 *126:56 3.59965e-05
7 *35:10 *142:12 6.25829e-05
8 *35:10 *198:10 9.39056e-05
9 *35:10 *207:10 2.60152e-05
*RES
1 *650:Y *35:10 43.1371 
2 *35:10 *694:RESET_B 16.5018 
*END

*D_NET *36 0.000919788
*CONN
*I *695:RESET_B I *D sky130_fd_sc_hd__dfrtp_4
*I *651:Y O *D sky130_fd_sc_hd__inv_2
*CAP
1 *695:RESET_B 3.92036e-05
2 *651:Y 0.000258452
3 *36:8 0.000297656
4 *695:RESET_B *115:39 9.18637e-05
5 *36:8 *115:20 3.884e-05
6 *36:8 *115:39 8.4047e-05
7 *36:8 *116:14 0
8 *36:8 *182:8 0
9 *36:8 *208:10 6.7177e-06
10 *36:8 *208:14 0.000103009
*RES
1 *651:Y *36:8 42.3707 
2 *36:8 *695:RESET_B 16.0254 
*END

*D_NET *37 0.0020271
*CONN
*I *696:RESET_B I *D sky130_fd_sc_hd__dfrtp_4
*I *652:Y O *D sky130_fd_sc_hd__inv_2
*CAP
1 *696:RESET_B 0.000699155
2 *652:Y 0.000699155
3 *696:RESET_B *628:B1 2.18409e-05
4 *696:RESET_B *652:A 2.93845e-05
5 *696:RESET_B *58:10 0.000161767
6 *696:RESET_B *115:39 1.95443e-05
7 *696:RESET_B *143:49 1.14154e-05
8 *696:RESET_B *143:68 0.000384839
*RES
1 *652:Y *696:RESET_B 36.7646 
*END

*D_NET *38 0.000582299
*CONN
*I *697:RESET_B I *D sky130_fd_sc_hd__dfrtp_1
*I *653:Y O *D sky130_fd_sc_hd__inv_2
*CAP
1 *697:RESET_B 0
2 *653:Y 0.000162012
3 *38:10 0.000162012
4 *38:10 *126:163 0.000116314
5 *38:10 *147:23 0
6 *38:10 *197:16 0.00014196
*RES
1 *653:Y *38:10 41.1279 
2 *38:10 *697:RESET_B 15 
*END

*D_NET *39 0.000506754
*CONN
*I *698:SET_B I *D sky130_fd_sc_hd__dfstp_1
*I *654:Y O *D sky130_fd_sc_hd__inv_2
*CAP
1 *698:SET_B 0
2 *654:Y 0.000130902
3 *39:10 0.000130902
4 *39:10 *126:16 9.53602e-05
5 *39:10 *127:96 5.67058e-05
6 *39:10 *198:10 9.28842e-05
*RES
1 *654:Y *39:10 41.2314 
2 *39:10 *698:SET_B 15 
*END

*D_NET *40 0.00031996
*CONN
*I *699:RESET_B I *D sky130_fd_sc_hd__dfrtp_1
*I *655:Y O *D sky130_fd_sc_hd__inv_2
*CAP
1 *699:RESET_B 0
2 *655:Y 0.00015998
3 *40:8 0.00015998
4 *40:8 *82:14 0
5 *40:8 *82:83 0
6 *40:8 *156:20 0
*RES
1 *655:Y *40:8 40.61 
2 *40:8 *699:RESET_B 15 
*END

*D_NET *41 0.000649348
*CONN
*I *700:RESET_B I *D sky130_fd_sc_hd__dfrtp_1
*I *656:Y O *D sky130_fd_sc_hd__inv_2
*CAP
1 *700:RESET_B 7.49172e-05
2 *656:Y 9.4711e-05
3 *41:10 0.000169628
4 *700:RESET_B *85:49 4.36616e-05
5 *41:10 *588:B 1.16455e-05
6 *41:10 *84:14 5.5792e-05
7 *41:10 *139:10 0.000113235
8 *41:10 *200:12 8.57577e-05
*RES
1 *656:Y *41:10 40.175 
2 *41:10 *700:RESET_B 16.0254 
*END

*D_NET *42 0.00031294
*CONN
*I *701:RESET_B I *D sky130_fd_sc_hd__dfrtp_4
*I *657:Y O *D sky130_fd_sc_hd__inv_2
*CAP
1 *701:RESET_B 0
2 *657:Y 0.000136559
3 *42:10 0.000136559
4 *42:10 *648:A 3.22879e-05
5 *42:10 *126:38 7.53384e-06
6 *42:10 *198:10 0
*RES
1 *657:Y *42:10 40.175 
2 *42:10 *701:RESET_B 15 
*END

*D_NET *43 0.000625383
*CONN
*I *702:RESET_B I *D sky130_fd_sc_hd__dfrtp_4
*I *659:Y O *D sky130_fd_sc_hd__inv_2
*CAP
1 *702:RESET_B 0
2 *659:Y 0.000173352
3 *43:8 0.000173352
4 *43:8 *664:A 0.000169683
5 *43:8 *783:A 0
6 *43:8 *48:8 8.85189e-05
7 *43:8 *63:10 0
8 *43:8 *140:46 2.04774e-05
*RES
1 *659:Y *43:8 42.3707 
2 *43:8 *702:RESET_B 15 
*END

*D_NET *44 0.000488423
*CONN
*I *703:SET_B I *D sky130_fd_sc_hd__dfstp_1
*I *660:Y O *D sky130_fd_sc_hd__inv_2
*CAP
1 *703:SET_B 0
2 *660:Y 0.000131244
3 *44:8 0.000131244
4 *44:8 *763:A 0
5 *44:8 *127:102 1.01436e-05
6 *44:8 *127:132 0.000215791
7 *44:8 *219:12 0
8 *44:8 *222:10 0
*RES
1 *660:Y *44:8 40.9621 
2 *44:8 *703:SET_B 15 
*END

*D_NET *45 0.000489132
*CONN
*I *704:RESET_B I *D sky130_fd_sc_hd__dfrtp_4
*I *661:Y O *D sky130_fd_sc_hd__inv_2
*CAP
1 *704:RESET_B 0
2 *661:Y 0.000224341
3 *45:8 0.000224341
4 *26:10 *45:8 4.04496e-05
*RES
1 *661:Y *45:8 42.3707 
2 *45:8 *704:RESET_B 15 
*END

*D_NET *46 0.000903851
*CONN
*I *705:RESET_B I *D sky130_fd_sc_hd__dfrtp_1
*I *662:Y O *D sky130_fd_sc_hd__inv_2
*CAP
1 *705:RESET_B 0.000376566
2 *662:Y 0.000376566
3 *705:RESET_B *143:92 0.00015072
*RES
1 *662:Y *705:RESET_B 28.9554 
*END

*D_NET *47 0.000306302
*CONN
*I *706:RESET_B I *D sky130_fd_sc_hd__dfrtp_1
*I *663:Y O *D sky130_fd_sc_hd__inv_2
*CAP
1 *706:RESET_B 0
2 *663:Y 0.000152029
3 *47:8 0.000152029
4 *47:8 *143:10 0
5 *47:8 *143:14 0
6 *47:8 *161:45 2.24366e-06
*RES
1 *663:Y *47:8 40.61 
2 *47:8 *706:RESET_B 15 
*END

*D_NET *48 0.00116843
*CONN
*I *707:RESET_B I *D sky130_fd_sc_hd__dfrtp_1
*I *664:Y O *D sky130_fd_sc_hd__inv_2
*CAP
1 *707:RESET_B 0.000100493
2 *664:Y 9.85993e-05
3 *48:8 0.000199092
4 *707:RESET_B *140:40 0.000346207
5 *707:RESET_B *167:20 0.000180003
6 *48:8 *664:A 4.07715e-05
7 *48:8 *127:45 1.83564e-05
8 *48:8 *140:46 9.63918e-05
9 *43:8 *48:8 8.85189e-05
*RES
1 *664:Y *48:8 40.61 
2 *48:8 *707:RESET_B 18.8839 
*END

*D_NET *49 0.000829139
*CONN
*I *708:RESET_B I *D sky130_fd_sc_hd__dfrtp_1
*I *665:Y O *D sky130_fd_sc_hd__inv_2
*CAP
1 *708:RESET_B 2.23241e-05
2 *665:Y 0.000301518
3 *49:10 0.000323842
4 *708:RESET_B *156:20 4.90004e-05
5 *49:10 *589:A0 5.14026e-05
6 *49:10 *669:A 3.7122e-06
7 *49:10 *92:10 7.73389e-05
8 *49:10 *146:21 0
*RES
1 *665:Y *49:10 42.785 
2 *49:10 *708:RESET_B 15.5489 
*END

*D_NET *50 0.000398029
*CONN
*I *709:RESET_B I *D sky130_fd_sc_hd__dfrtp_1
*I *666:Y O *D sky130_fd_sc_hd__inv_2
*CAP
1 *709:RESET_B 0
2 *666:Y 8.04266e-05
3 *50:8 8.04266e-05
4 *50:8 *103:10 5.55278e-05
5 *50:8 *127:92 8.62876e-05
6 *50:8 *139:26 9.53602e-05
*RES
1 *666:Y *50:8 40.61 
2 *50:8 *709:RESET_B 15 
*END

*D_NET *51 0.000360801
*CONN
*I *710:RESET_B I *D sky130_fd_sc_hd__dfrtp_1
*I *667:Y O *D sky130_fd_sc_hd__inv_2
*CAP
1 *710:RESET_B 0.000131158
2 *667:Y 0.000131158
3 *710:RESET_B *755:A 9.84851e-05
*RES
1 *667:Y *710:RESET_B 25.4546 
*END

*D_NET *52 0.000388607
*CONN
*I *711:RESET_B I *D sky130_fd_sc_hd__dfrtp_1
*I *668:Y O *D sky130_fd_sc_hd__inv_2
*CAP
1 *711:RESET_B 0.000133405
2 *668:Y 0.000133405
3 *711:RESET_B *711:CLK 0.000121797
*RES
1 *668:Y *711:RESET_B 25.4546 
*END

*D_NET *53 0.00163096
*CONN
*I *712:RESET_B I *D sky130_fd_sc_hd__dfrtp_1
*I *669:Y O *D sky130_fd_sc_hd__inv_2
*CAP
1 *712:RESET_B 7.85988e-05
2 *669:Y 0.000242237
3 *53:8 0.000320835
4 *712:RESET_B *150:10 2.95526e-05
5 *53:8 *758:A 0.000195316
6 *53:8 *146:21 0.000168644
7 *53:8 *155:10 0.000595773
*RES
1 *669:Y *53:8 45.8921 
2 *53:8 *712:RESET_B 16.5018 
*END

*D_NET *54 0.000886498
*CONN
*I *713:RESET_B I *D sky130_fd_sc_hd__dfrtp_1
*I *670:Y O *D sky130_fd_sc_hd__inv_2
*CAP
1 *713:RESET_B 0.000171902
2 *670:Y 6.17921e-05
3 *54:8 0.000233694
4 *713:RESET_B *754:A 9.17234e-05
5 *713:RESET_B *82:93 2.02872e-05
6 *713:RESET_B *144:39 0.000139357
7 *54:8 *127:22 0.000113153
8 *54:8 *166:14 5.45887e-05
*RES
1 *670:Y *54:8 39.5536 
2 *54:8 *713:RESET_B 18.9254 
*END

*D_NET *55 0.000434623
*CONN
*I *714:RESET_B I *D sky130_fd_sc_hd__dfrtp_1
*I *671:Y O *D sky130_fd_sc_hd__inv_2
*CAP
1 *714:RESET_B 0
2 *671:Y 8.66343e-05
3 *55:8 8.66343e-05
4 *55:8 *71:8 6.48049e-05
5 *55:8 *144:18 0.000196549
6 *55:8 *146:21 0
*RES
1 *671:Y *55:8 40.61 
2 *55:8 *714:RESET_B 15 
*END

*D_NET *56 0.00160933
*CONN
*I *715:RESET_B I *D sky130_fd_sc_hd__dfrtp_1
*I *672:Y O *D sky130_fd_sc_hd__inv_2
*CAP
1 *715:RESET_B 6.88957e-05
2 *672:Y 0.000390993
3 *56:16 0.000459889
4 *715:RESET_B *715:CLK 1.23407e-05
5 *715:RESET_B *153:31 0.000179229
6 *56:16 *598:S 0.000189276
7 *56:16 *72:10 0.000109352
8 *56:16 *140:96 0.000160915
9 *56:16 *140:111 3.84402e-05
*RES
1 *672:Y *56:16 45.8093 
2 *56:16 *715:RESET_B 16.9782 
*END

*D_NET *57 0.000631962
*CONN
*I *749:A I *D sky130_fd_sc_hd__dlygate4sd3_1
*I *630:Y O *D sky130_fd_sc_hd__a21oi_1
*CAP
1 *749:A 0.000109614
2 *630:Y 0.000136388
3 *57:8 0.000246002
4 *749:A *745:A 0.000100069
5 *57:8 *185:10 3.98887e-05
6 *57:8 *197:16 0
*RES
1 *630:Y *57:8 40.61 
2 *57:8 *749:A 40.4236 
*END

*D_NET *58 0.000735739
*CONN
*I *696:D I *D sky130_fd_sc_hd__dfrtp_4
*I *628:Y O *D sky130_fd_sc_hd__a21oi_1
*CAP
1 *696:D 0
2 *628:Y 0.000175525
3 *58:10 0.000175525
4 *58:10 *627:B1 0.000156207
5 *58:10 *628:B1 6.67149e-05
6 *58:10 *115:39 0
7 *696:RESET_B *58:10 0.000161767
*RES
1 *628:Y *58:10 27.8264 
2 *58:10 *696:D 23 
*END

*D_NET *59 0.000627116
*CONN
*I *735:A I *D sky130_fd_sc_hd__dlygate4sd3_1
*I *623:X O *D sky130_fd_sc_hd__a32o_1
*CAP
1 *735:A 0
2 *623:X 0.000233042
3 *59:8 0.000233042
4 *59:8 *695:CLK 8.15327e-05
5 *59:8 *745:A 0
6 *59:8 *143:45 6.93553e-05
7 *59:8 *147:23 0
8 *59:8 *172:8 0
9 *59:8 *198:10 1.01436e-05
10 *59:8 *209:8 0
*RES
1 *623:X *59:8 42.7229 
2 *59:8 *735:A 38 
*END

*D_NET *60 0.000566738
*CONN
*I *761:A I *D sky130_fd_sc_hd__dlygate4sd3_1
*I *621:X O *D sky130_fd_sc_hd__a21o_1
*CAP
1 *761:A 7.37912e-05
2 *621:X 0.000116013
3 *60:8 0.000189804
4 *761:A *144:35 0.000187129
5 *60:8 *621:A1 0
*RES
1 *621:X *60:8 39.9057 
2 *60:8 *761:A 40.0507 
*END

*D_NET *61 0.000721953
*CONN
*I *700:D I *D sky130_fd_sc_hd__dfrtp_1
*I *619:X O *D sky130_fd_sc_hd__clkbuf_1
*CAP
1 *700:D 0
2 *619:X 0.000170129
3 *61:8 0.000170129
4 *61:8 *81:69 1.79572e-05
5 *61:8 *127:22 0.000115526
6 *61:8 *166:14 8.59579e-05
7 *61:8 *202:53 0.000162254
*RES
1 *619:X *61:8 42.3707 
2 *61:8 *700:D 38 
*END

*D_NET *62 0.000376605
*CONN
*I *701:D I *D sky130_fd_sc_hd__dfrtp_4
*I *617:X O *D sky130_fd_sc_hd__a22o_1
*CAP
1 *701:D 2.63249e-05
2 *617:X 0.000104146
3 *62:8 0.000130471
4 *701:D *201:12 2.93747e-05
5 *62:8 *110:12 0
6 *62:8 *201:12 8.62876e-05
*RES
1 *617:X *62:8 39.9057 
2 *62:8 *701:D 38.6214 
*END

*D_NET *63 0.00158009
*CONN
*I *702:D I *D sky130_fd_sc_hd__dfrtp_4
*I *613:X O *D sky130_fd_sc_hd__a22o_1
*CAP
1 *702:D 3.88921e-05
2 *613:X 0.000389029
3 *63:10 0.000427921
4 *702:D *88:10 6.17437e-06
5 *702:D *202:8 1.24365e-05
6 *63:10 *584:A2 0.000151907
7 *63:10 *613:A2 8.91468e-07
8 *63:10 *88:10 0.000379422
9 *63:10 *88:22 1.0067e-05
10 *63:10 *167:10 0.000163352
11 *43:8 *63:10 0
*RES
1 *613:X *63:10 46.2857 
2 *63:10 *702:D 38.6214 
*END

*D_NET *64 0.00278492
*CONN
*I *730:A I *D sky130_fd_sc_hd__dlygate4sd3_1
*I *611:X O *D sky130_fd_sc_hd__o22a_1
*CAP
1 *730:A 0.000331101
2 *611:X 0.000387951
3 *64:10 0.000719051
4 *730:A *87:12 9.79925e-05
5 *730:A *107:10 5.3304e-05
6 *730:A *154:27 0.000396671
7 *730:A *206:26 0.000125059
8 *64:10 *81:29 0.000182219
9 *64:10 *91:10 3.26241e-05
10 *64:10 *108:10 5.66866e-05
11 *64:10 *139:10 0.000187612
12 *64:10 *201:29 1.13812e-05
13 *64:10 *201:42 1.79572e-05
14 *64:10 *201:50 4.67488e-05
15 *64:10 *202:71 4.41821e-06
16 *64:10 *202:77 6.72382e-05
17 *64:10 *202:100 6.69072e-05
*RES
1 *611:X *64:10 46.7 
2 *64:10 *730:A 45.8093 
*END

*D_NET *65 0.00021769
*CONN
*I *708:D I *D sky130_fd_sc_hd__dfrtp_1
*I *608:X O *D sky130_fd_sc_hd__clkbuf_1
*CAP
1 *708:D 1.47919e-05
2 *608:X 6.81052e-05
3 *65:8 8.28971e-05
4 *708:D *156:20 1.10317e-05
5 *65:8 *105:10 4.08641e-05
6 *65:8 *156:20 0
*RES
1 *608:X *65:8 39.2014 
2 *65:8 *708:D 38.2123 
*END

*D_NET *66 0.000521618
*CONN
*I *709:D I *D sky130_fd_sc_hd__dfrtp_1
*I *605:X O *D sky130_fd_sc_hd__clkbuf_1
*CAP
1 *709:D 0.000114744
2 *605:X 7.51212e-05
3 *66:8 0.000189865
4 *66:8 *129:10 0.000141888
5 *66:8 *166:14 0
*RES
1 *605:X *66:8 39.9057 
2 *66:8 *709:D 40.0507 
*END

*D_NET *67 0.000508502
*CONN
*I *710:D I *D sky130_fd_sc_hd__dfrtp_1
*I *602:X O *D sky130_fd_sc_hd__clkbuf_1
*CAP
1 *710:D 0.000142926
2 *602:X 0.000108238
3 *67:8 0.000251164
4 *710:D *140:31 6.17437e-06
5 *67:8 *153:12 0
*RES
1 *602:X *67:8 39.9057 
2 *67:8 *710:D 40.5271 
*END

*D_NET *68 0.000692914
*CONN
*I *711:D I *D sky130_fd_sc_hd__dfrtp_1
*I *599:X O *D sky130_fd_sc_hd__clkbuf_1
*CAP
1 *711:D 0
2 *599:X 0.000250286
3 *68:10 0.000250286
4 *68:10 *778:A 0.000192342
*RES
1 *599:X *68:10 42.0807 
2 *68:10 *711:D 38 
*END

*D_NET *69 0.00029373
*CONN
*I *712:D I *D sky130_fd_sc_hd__dfrtp_1
*I *596:X O *D sky130_fd_sc_hd__clkbuf_1
*CAP
1 *712:D 0.000130553
2 *596:X 0.000130553
3 *712:D *142:36 3.26241e-05
*RES
1 *596:X *712:D 48.5479 
*END

*D_NET *70 0.000787349
*CONN
*I *713:D I *D sky130_fd_sc_hd__dfrtp_1
*I *593:X O *D sky130_fd_sc_hd__a41o_1
*CAP
1 *713:D 0
2 *593:X 0.000298225
3 *70:10 0.000298225
4 *70:10 *672:A 5.67058e-05
5 *70:10 *82:126 9.60547e-05
6 *70:10 *140:111 3.81391e-05
*RES
1 *593:X *70:10 43.0336 
2 *70:10 *713:D 38 
*END

*D_NET *71 0.00122008
*CONN
*I *714:D I *D sky130_fd_sc_hd__dfrtp_1
*I *590:X O *D sky130_fd_sc_hd__clkbuf_1
*CAP
1 *714:D 0.00026997
2 *590:X 0.000205292
3 *71:8 0.000475262
4 *71:8 *93:8 8.85189e-05
5 *71:8 *144:18 0.000116228
6 *71:8 *146:21 0
7 *55:8 *71:8 6.48049e-05
*RES
1 *590:X *71:8 43.075 
2 *71:8 *714:D 41.9564 
*END

*D_NET *72 0.000531227
*CONN
*I *715:D I *D sky130_fd_sc_hd__dfrtp_1
*I *585:X O *D sky130_fd_sc_hd__a41o_1
*CAP
1 *715:D 0
2 *585:X 0.000151608
3 *72:10 0.000151608
4 *72:10 *127:30 0.000118659
5 *56:16 *72:10 0.000109352
*RES
1 *585:X *72:10 40.6514 
2 *72:10 *715:D 38 
*END

*D_NET *73 0.000418696
*CONN
*I *716:D I *D sky130_fd_sc_hd__dfxtp_1
*I *676:X O *D sky130_fd_sc_hd__clkbuf_1
*CAP
1 *716:D 5.53181e-05
2 *676:X 7.6236e-05
3 *73:8 0.000131554
4 *716:D *716:CLK 0.000104407
5 *73:8 *709:CLK 5.11807e-05
*RES
1 *676:X *73:8 39.5536 
2 *73:8 *716:D 39.1445 
*END

*D_NET *74 0.000445743
*CONN
*I *717:D I *D sky130_fd_sc_hd__dfxtp_1
*I *678:X O *D sky130_fd_sc_hd__clkbuf_1
*CAP
1 *717:D 0.000131916
2 *678:X 0.000131916
3 *717:D *678:A 1.32314e-05
4 *717:D *141:57 0.000126706
5 *717:D *141:70 4.19743e-05
*RES
1 *678:X *717:D 48.8638 
*END

*D_NET *75 0.00164606
*CONN
*I *718:D I *D sky130_fd_sc_hd__dfxtp_1
*I *680:X O *D sky130_fd_sc_hd__clkbuf_1
*CAP
1 *718:D 1.58638e-05
2 *680:X 0.000665724
3 *75:10 0.000681588
4 *75:10 *716:CLK 0.000111218
5 *75:10 *141:14 8.36198e-05
6 *75:10 *141:38 8.80415e-05
7 *75:10 *211:25 0
*RES
1 *680:X *75:10 47.5493 
2 *75:10 *718:D 38.1916 
*END

*D_NET *76 0.00117727
*CONN
*I *719:D I *D sky130_fd_sc_hd__dfxtp_1
*I *682:X O *D sky130_fd_sc_hd__clkbuf_1
*CAP
1 *719:D 6.79924e-05
2 *682:X 0.000370549
3 *76:10 0.000438542
4 *76:10 *80:8 5.80963e-05
5 *76:10 *133:10 8.62783e-05
6 *76:10 *141:74 0.000141879
7 *76:10 *145:8 1.39317e-05
8 *10:10 *76:10 0
*RES
1 *682:X *76:10 45.4571 
2 *76:10 *719:D 39.3671 
*END

*D_NET *77 0.000612545
*CONN
*I *720:D I *D sky130_fd_sc_hd__dfxtp_1
*I *684:X O *D sky130_fd_sc_hd__clkbuf_1
*CAP
1 *720:D 1.31802e-05
2 *684:X 0.000157897
3 *77:10 0.000171077
4 *77:10 *129:80 9.84851e-05
5 *77:10 *134:10 0
6 *77:10 *151:8 0.000171906
*RES
1 *684:X *77:10 41.3557 
2 *77:10 *720:D 38.1916 
*END

*D_NET *78 0.000396245
*CONN
*I *721:D I *D sky130_fd_sc_hd__dfxtp_1
*I *686:X O *D sky130_fd_sc_hd__clkbuf_1
*CAP
1 *721:D 0.000111142
2 *686:X 0.000111142
3 *721:D *135:8 0.000173962
*RES
1 *686:X *721:D 48.3873 
*END

*D_NET *79 0.000467395
*CONN
*I *722:D I *D sky130_fd_sc_hd__dfxtp_1
*I *688:X O *D sky130_fd_sc_hd__clkbuf_1
*CAP
1 *722:D 0.000106864
2 *688:X 9.76908e-05
3 *79:8 0.000204555
4 *722:D *722:CLK 5.82853e-05
*RES
1 *688:X *79:8 39.5536 
2 *79:8 *722:D 39.8902 
*END

*D_NET *80 0.000560395
*CONN
*I *723:D I *D sky130_fd_sc_hd__dfxtp_1
*I *690:X O *D sky130_fd_sc_hd__clkbuf_1
*CAP
1 *723:D 1.26271e-05
2 *690:X 0.000193238
3 *80:8 0.000205865
4 *723:D *141:70 1.64354e-05
5 *80:8 *722:CLK 5.61311e-05
6 *80:8 *137:8 0
7 *80:8 *141:74 1.80023e-05
8 *76:10 *80:8 5.80963e-05
*RES
1 *690:X *80:8 42.3707 
2 *80:8 *723:D 38.1916 
*END

*D_NET *81 0.00932735
*CONN
*I *579:C I *D sky130_fd_sc_hd__or3_1
*I *588:B I *D sky130_fd_sc_hd__or3_1
*I *594:B I *D sky130_fd_sc_hd__or3_1
*I *614:B I *D sky130_fd_sc_hd__nor2_1
*I *578:A2 I *D sky130_fd_sc_hd__o21ai_1
*I *593:A2 I *D sky130_fd_sc_hd__a41o_1
*I *585:A2 I *D sky130_fd_sc_hd__a41o_1
*I *618:S I *D sky130_fd_sc_hd__mux2_1
*I *600:C I *D sky130_fd_sc_hd__or4_1
*I *582:B I *D sky130_fd_sc_hd__and2_1
*I *576:X O *D sky130_fd_sc_hd__buf_2
*CAP
1 *579:C 4.82073e-05
2 *588:B 0.000127773
3 *594:B 0.000117209
4 *614:B 3.4288e-05
5 *578:A2 0
6 *593:A2 0
7 *585:A2 1.23075e-05
8 *618:S 0.00038426
9 *600:C 7.8752e-05
10 *582:B 0.000194107
11 *576:X 0
12 *81:86 0.000320928
13 *81:69 0.000652387
14 *81:46 0.000722913
15 *81:33 0.000228381
16 *81:31 0.000234769
17 *81:29 0.000204526
18 *81:12 0.000350158
19 *81:10 0.000297732
20 *81:8 0.000315063
21 *81:4 0.000145427
22 *579:C *576:A 1.92324e-05
23 *579:C *579:A 0.000104933
24 *579:C *85:49 0.000100486
25 *582:B *636:A1 1.29944e-05
26 *582:B *108:10 0.000134767
27 *582:B *201:42 4.19375e-05
28 *582:B *201:68 2.03073e-05
29 *582:B *202:79 3.44862e-05
30 *582:B *206:26 1.0092e-05
31 *585:A2 *585:B1 1.1258e-05
32 *588:B *90:20 0.000215279
33 *588:B *139:10 5.45461e-05
34 *594:B *90:20 5.3304e-05
35 *594:B *201:68 0.000182222
36 *600:C *600:A 3.4394e-05
37 *600:C *202:45 5.3304e-05
38 *614:B *201:50 8.841e-06
39 *618:S *583:B 1.01436e-05
40 *618:S *600:B 1.13812e-05
41 *618:S *613:A1 9.67842e-05
42 *618:S *613:A2 4.91898e-05
43 *618:S *613:B1 9.84851e-05
44 *618:S *111:10 0.000142055
45 *618:S *202:34 0.000239923
46 *618:S *202:53 6.12484e-05
47 *81:8 *576:A 6.17437e-06
48 *81:8 *85:49 2.06822e-05
49 *81:10 *90:20 0.000184634
50 *81:10 *139:10 4.16051e-06
51 *81:10 *200:12 0.000134776
52 *81:10 *201:68 1.16455e-05
53 *81:12 *579:A 1.47789e-05
54 *81:12 *90:20 3.46013e-05
55 *81:12 *201:68 5.59141e-05
56 *81:12 *202:79 8.0612e-06
57 *81:29 *201:50 9.8592e-06
58 *81:29 *202:77 0.000226899
59 *81:31 *83:10 0.000279227
60 *81:31 *201:50 1.61385e-05
61 *81:31 *202:60 8.42292e-05
62 *81:31 *202:71 0.000279219
63 *81:31 *202:77 5.58003e-05
64 *81:33 *202:45 4.08664e-05
65 *81:33 *202:60 0.000187363
66 *81:69 *585:A3 5.52998e-05
67 *81:69 *585:A4 9.77405e-05
68 *81:69 *593:A1 0.000214412
69 *81:69 *600:B 7.43673e-05
70 *81:69 *700:CLK 6.8137e-05
71 *81:69 *127:22 8.57577e-05
72 *81:69 *201:99 9.98069e-06
73 *81:69 *202:53 0.000164545
74 *81:86 *585:A3 7.41877e-05
75 *81:86 *585:B1 7.97439e-06
76 *81:86 *672:A 9.77405e-05
77 *81:86 *82:101 5.14172e-05
78 *81:86 *98:10 0.000188164
79 *41:10 *588:B 1.16455e-05
80 *61:8 *81:69 1.79572e-05
81 *64:10 *81:29 0.000182219
*RES
1 *576:X *81:4 23 
2 *81:4 *81:8 16.0979 
3 *81:8 *81:10 2.61 
4 *81:10 *81:12 1.90571 
5 *81:12 *582:B 42.0807 
6 *81:12 *81:29 17.5271 
7 *81:29 *81:31 4.43286 
8 *81:31 *81:33 2.52714 
9 *81:33 *600:C 24.595 
10 *81:33 *81:46 15.4971 
11 *81:46 *618:S 46.3479 
12 *81:46 *81:69 22.5193 
13 *81:69 *585:A2 23.4971 
14 *81:69 *81:86 35.6136 
15 *81:86 *593:A2 23 
16 *81:31 *578:A2 23 
17 *81:29 *614:B 23.8493 
18 *81:10 *594:B 40.5479 
19 *81:8 *588:B 40.9621 
20 *81:4 *579:C 24.9471 
*END

*D_NET *82 0.0181301
*CONN
*I *604:A0 I *D sky130_fd_sc_hd__mux2_1
*I *593:A3 I *D sky130_fd_sc_hd__a41o_1
*I *598:A0 I *D sky130_fd_sc_hd__mux2_1
*I *601:A0 I *D sky130_fd_sc_hd__mux2_1
*I *585:A3 I *D sky130_fd_sc_hd__a41o_1
*I *589:A0 I *D sky130_fd_sc_hd__mux2_1
*I *595:A0 I *D sky130_fd_sc_hd__mux2_1
*I *607:A1 I *D sky130_fd_sc_hd__mux2_1
*I *610:B1 I *D sky130_fd_sc_hd__o21a_1
*I *643:B I *D sky130_fd_sc_hd__nor2_1
*I *577:X O *D sky130_fd_sc_hd__buf_2
*CAP
1 *604:A0 0
2 *593:A3 0
3 *598:A0 0
4 *601:A0 0
5 *585:A3 0.000181758
6 *589:A0 0.000484536
7 *595:A0 0.000383581
8 *607:A1 0
9 *610:B1 1.56031e-05
10 *643:B 0.000446071
11 *577:X 0.0002592
12 *82:138 0.000462559
13 *82:126 0.0009752
14 *82:101 0.000910047
15 *82:93 0.000689692
16 *82:83 0.00127664
17 *82:55 0.000984251
18 *82:46 0.000666751
19 *82:18 0.000709985
20 *82:14 0.00110882
21 *82:8 0.00137168
22 *585:A3 *593:A4 6.77032e-05
23 *585:A3 *86:10 2.36182e-05
24 *585:A3 *98:10 1.63351e-05
25 *589:A0 *92:20 0.000377181
26 *589:A0 *104:12 7.35277e-05
27 *589:A0 *144:18 2.61802e-05
28 *589:A0 *146:21 0
29 *595:A0 *595:A1 5.76359e-05
30 *595:A0 *96:18 1.61385e-05
31 *595:A0 *104:12 8.87259e-05
32 *610:B1 *580:C 5.56279e-05
33 *610:B1 *142:36 5.56279e-05
34 *643:B *611:A2 0.000154298
35 *643:B *643:A 0.00019588
36 *643:B *126:30 0
37 *643:B *194:14 2.59257e-05
38 *643:B *204:12 4.2812e-06
39 *643:B *206:10 9.5876e-06
40 *82:8 *92:10 0.000357087
41 *82:14 *96:10 0.000144656
42 *82:14 *126:30 0
43 *82:14 *142:70 0.000139647
44 *82:18 *168:12 8.50457e-05
45 *82:18 *194:14 4.2812e-06
46 *82:18 *204:12 6.54906e-05
47 *82:46 *607:A0 5.58003e-05
48 *82:46 *96:10 0.000527836
49 *82:46 *105:10 0.000102971
50 *82:55 *607:A0 6.72291e-05
51 *82:83 *577:A 0
52 *82:83 *142:70 4.92689e-05
53 *82:83 *144:35 0.000348123
54 *82:83 *144:39 0.000995824
55 *82:83 *147:12 0.000268074
56 *82:83 *162:10 8.85189e-05
57 *82:93 *672:A 0.000155658
58 *82:93 *144:39 0.000658443
59 *82:101 *593:A1 1.66298e-05
60 *82:101 *593:A4 5.58975e-06
61 *82:101 *672:A 5.79559e-05
62 *82:101 *127:22 0
63 *82:126 *593:A1 5.56279e-05
64 *82:126 *593:A4 1.8788e-05
65 *82:126 *593:B1 2.80918e-05
66 *82:126 *598:A1 0.000187129
67 *82:126 *598:S 0.000462419
68 *82:126 *672:A 7.26452e-05
69 *82:126 *753:A 0.000145611
70 *82:138 *598:A1 6.17437e-06
71 *82:138 *598:S 1.37232e-05
72 *82:138 *753:A 3.14377e-05
73 *82:138 *778:A 0.000103993
74 *82:138 *99:12 0
75 *82:138 *153:12 8.78864e-05
76 *82:138 *153:31 0.000144159
77 *691:SET_B *82:83 0
78 *713:RESET_B *82:93 2.02872e-05
79 *3:13 *589:A0 0
80 *32:8 *82:83 5.50106e-05
81 *40:8 *82:14 0
82 *40:8 *82:83 0
83 *49:10 *589:A0 5.14026e-05
84 *70:10 *82:126 9.60547e-05
85 *81:69 *585:A3 5.52998e-05
86 *81:86 *585:A3 7.41877e-05
87 *81:86 *82:101 5.14172e-05
*RES
1 *577:X *82:8 41.9564 
2 *82:8 *82:14 20.945 
3 *82:14 *82:18 18.6664 
4 *82:18 *643:B 45.6436 
5 *82:18 *610:B1 38.6214 
6 *82:14 *82:46 11.6 
7 *82:46 *607:A1 23 
8 *82:46 *82:55 16.5743 
9 *82:55 *595:A0 45.3536 
10 *82:55 *589:A0 48.7093 
11 *82:8 *82:83 33.3736 
12 *82:83 *82:93 39.9429 
13 *82:93 *82:101 18.1486 
14 *82:101 *585:A3 41.5836 
15 *82:101 *82:126 29.1893 
16 *82:126 *82:138 40.2121 
17 *82:138 *601:A0 23 
18 *82:126 *598:A0 23 
19 *82:93 *593:A3 23 
20 *82:83 *604:A0 23 
*END

*D_NET *83 0.00103448
*CONN
*I *581:A1 I *D sky130_fd_sc_hd__a21oi_1
*I *578:Y O *D sky130_fd_sc_hd__o21ai_1
*CAP
1 *581:A1 0
2 *578:Y 0.000296495
3 *83:10 0.000296495
4 *83:10 *603:A 0.000152171
5 *83:10 *202:71 1.0092e-05
6 *81:31 *83:10 0.000279227
*RES
1 *578:Y *83:10 43.2614 
2 *83:10 *581:A1 38 
*END

*D_NET *84 0.00264763
*CONN
*I *606:B I *D sky130_fd_sc_hd__nor2_1
*I *581:A2 I *D sky130_fd_sc_hd__a21oi_1
*I *579:X O *D sky130_fd_sc_hd__or3_1
*CAP
1 *606:B 0.000344786
2 *581:A2 0
3 *579:X 0
4 *84:14 0.000482342
5 *84:4 0.000827129
6 *606:B *586:A 0.00016671
7 *606:B *85:16 1.9054e-05
8 *606:B *85:49 0.00019309
9 *84:14 *594:C 9.66585e-05
10 *84:14 *597:C 2.64616e-05
11 *84:14 *656:A 9.41704e-05
12 *84:14 *85:49 9.66668e-05
13 *84:14 *85:53 3.28357e-06
14 *84:14 *90:20 6.63159e-06
15 *84:14 *91:27 5.0518e-05
16 *84:14 *94:6 2.95526e-05
17 *84:14 *96:10 3.34276e-06
18 *84:14 *200:12 9.79925e-05
19 *84:14 *201:68 5.34515e-05
20 *41:10 *84:14 5.5792e-05
*RES
1 *579:X *84:4 23 
2 *84:4 *84:14 38.8657 
3 *84:14 *581:A2 23 
4 *84:4 *606:B 29.8564 
*END

*D_NET *85 0.00859668
*CONN
*I *603:D I *D sky130_fd_sc_hd__or4_1
*I *581:B1 I *D sky130_fd_sc_hd__a21oi_1
*I *600:D I *D sky130_fd_sc_hd__or4_1
*I *584:A1 I *D sky130_fd_sc_hd__o21a_1
*I *597:D I *D sky130_fd_sc_hd__or4_1
*I *606:A I *D sky130_fd_sc_hd__nor2_1
*I *580:X O *D sky130_fd_sc_hd__or3_2
*CAP
1 *603:D 0
2 *581:B1 0
3 *600:D 0
4 *584:A1 0.00018637
5 *597:D 4.54044e-05
6 *606:A 0
7 *580:X 0.000375214
8 *85:97 0.000225249
9 *85:70 0.000578018
10 *85:55 0.000526684
11 *85:53 0.000151129
12 *85:49 0.0010337
13 *85:16 0.00085936
14 *85:10 0.00048762
15 *584:A1 *584:A2 6.17437e-06
16 *584:A1 *600:A 0.000144494
17 *584:A1 *100:12 6.68705e-05
18 *597:D *597:C 2.64616e-05
19 *85:10 *142:36 7.9566e-05
20 *85:10 *168:12 2.04854e-05
21 *85:10 *168:25 1.94812e-05
22 *85:16 *655:A 0.000515412
23 *85:16 *104:6 0.000539098
24 *85:49 *576:A 5.5792e-05
25 *85:49 *579:A 1.35714e-05
26 *85:49 *586:A 0.000240155
27 *85:49 *597:C 2.20564e-05
28 *85:49 *655:A 8.64424e-05
29 *85:49 *94:23 0.000168788
30 *85:49 *104:6 1.60613e-05
31 *85:49 *126:26 0.000255759
32 *85:49 *139:10 0.000163272
33 *85:49 *201:91 0.000232276
34 *85:53 *597:C 1.61385e-05
35 *85:55 *597:C 9.84137e-05
36 *85:70 *578:A1 9.66585e-05
37 *85:70 *600:A 1.24376e-05
38 *85:70 *619:A 0.000142678
39 *85:70 *166:14 0.000285649
40 *85:70 *202:45 1.41129e-05
41 *85:70 *202:60 1.57659e-05
42 *85:97 *603:A 0.000286796
43 *85:97 *166:14 0
44 *85:97 *191:8 1.01436e-05
45 *579:C *85:49 0.000100486
46 *606:B *85:16 1.9054e-05
47 *606:B *85:49 0.00019309
48 *700:RESET_B *85:49 4.36616e-05
49 *81:8 *85:49 2.06822e-05
50 *84:14 *85:49 9.66668e-05
51 *84:14 *85:53 3.28357e-06
*RES
1 *580:X *85:10 43.945 
2 *85:10 *85:16 21.3593 
3 *85:16 *606:A 23 
4 *85:16 *85:49 49.9064 
5 *85:49 *85:53 1.11857 
6 *85:53 *85:55 2.05071 
7 *85:55 *597:D 23.6214 
8 *85:55 *85:70 37.4986 
9 *85:70 *584:A1 26.6457 
10 *85:70 *600:D 23 
11 *85:53 *581:B1 23 
12 *85:49 *85:97 35.075 
13 *85:97 *603:D 23 
*END

*D_NET *86 0.00267321
*CONN
*I *593:A4 I *D sky130_fd_sc_hd__a41o_1
*I *585:A4 I *D sky130_fd_sc_hd__a41o_1
*I *581:Y O *D sky130_fd_sc_hd__a21oi_1
*CAP
1 *593:A4 0.000159441
2 *585:A4 2.9328e-05
3 *581:Y 0.00035638
4 *86:10 0.000545149
5 *585:A4 *700:CLK 9.77405e-05
6 *593:A4 *592:A1 1.12265e-05
7 *593:A4 *593:A1 0.000160915
8 *593:A4 *593:B1 2.93335e-05
9 *86:10 *593:A1 0.000234666
10 *86:10 *597:C 0.000274077
11 *86:10 *90:20 0.000230723
12 *86:10 *90:24 0.000265277
13 *86:10 *127:22 3.28795e-05
14 *86:10 *153:31 6.17437e-06
15 *86:10 *202:53 2.64616e-05
16 *585:A3 *593:A4 6.77032e-05
17 *585:A3 *86:10 2.36182e-05
18 *81:69 *585:A4 9.77405e-05
19 *82:101 *593:A4 5.58975e-06
20 *82:126 *593:A4 1.8788e-05
*RES
1 *581:Y *86:10 47.1764 
2 *86:10 *585:A4 39.0979 
3 *86:10 *593:A4 41.8736 
*END

*D_NET *87 0.00624797
*CONN
*I *615:A I *D sky130_fd_sc_hd__nor2_1
*I *636:A3 I *D sky130_fd_sc_hd__a32o_1
*I *613:A2 I *D sky130_fd_sc_hd__a22o_1
*I *583:B I *D sky130_fd_sc_hd__nand2_1
*I *582:X O *D sky130_fd_sc_hd__and2_1
*CAP
1 *615:A 0.000121268
2 *636:A3 0.000197567
3 *613:A2 0.000415579
4 *583:B 0.000346852
5 *582:X 0
6 *87:16 0.000943905
7 *87:12 0.000794796
8 *87:4 0.000537024
9 *583:B *616:B1_N 0.000229821
10 *583:B *107:10 1.12487e-05
11 *583:B *202:12 6.07611e-06
12 *583:B *202:21 0.000207437
13 *583:B *202:34 5.18047e-05
14 *583:B *205:37 8.62783e-05
15 *613:A2 *613:A1 0.000467547
16 *613:A2 *107:10 2.23551e-05
17 *613:A2 *111:10 1.0092e-05
18 *615:A *615:B 5.58003e-05
19 *615:A *727:A 5.00237e-05
20 *636:A3 *636:A1 0.000204779
21 *636:A3 *636:A2 0.000236909
22 *636:A3 *205:66 8.52481e-05
23 *636:A3 *206:26 7.42621e-05
24 *87:12 *582:A 5.45644e-05
25 *87:12 *615:B 1.47709e-05
26 *87:12 *727:A 1.76213e-05
27 *87:12 *201:29 6.56823e-05
28 *87:12 *205:59 0
29 *87:12 *206:26 2.20564e-05
30 *87:16 *613:A1 0.000262864
31 *87:16 *613:B1 9.67842e-05
32 *87:16 *618:A1 6.07175e-05
33 *87:16 *205:59 0.0002263
34 *87:16 *205:66 5.67058e-05
35 *618:S *583:B 1.01436e-05
36 *618:S *613:A2 4.91898e-05
37 *730:A *87:12 9.79925e-05
38 *738:A *636:A3 5.50106e-05
39 *63:10 *613:A2 8.91468e-07
*RES
1 *582:X *87:4 23 
2 *87:4 *87:12 36.3386 
3 *87:12 *87:16 20.3857 
4 *87:16 *583:B 47.3629 
5 *87:16 *613:A2 44.96 
6 *87:12 *636:A3 29.8357 
7 *87:4 *615:A 25.9207 
*END

*D_NET *88 0.00398359
*CONN
*I *616:A2 I *D sky130_fd_sc_hd__a21boi_1
*I *584:A2 I *D sky130_fd_sc_hd__o21a_1
*I *633:A2 I *D sky130_fd_sc_hd__a21o_1
*I *583:Y O *D sky130_fd_sc_hd__nand2_1
*CAP
1 *616:A2 7.83951e-05
2 *584:A2 0.000637829
3 *633:A2 0
4 *583:Y 0
5 *88:22 0.000258827
6 *88:10 0.00129293
7 *88:4 0.00047467
8 *584:A2 *89:10 0.000114237
9 *584:A2 *100:12 1.21972e-05
10 *584:A2 *167:10 0.000105319
11 *88:10 *140:63 0.000102389
12 *88:10 *160:10 3.76761e-05
13 *88:10 *202:8 0.000152787
14 *88:22 *159:28 2.62931e-05
15 *88:22 *167:10 1.6891e-05
16 *88:22 *167:20 0.000119407
17 *584:A1 *584:A2 6.17437e-06
18 *702:D *88:10 6.17437e-06
19 *63:10 *584:A2 0.000151907
20 *63:10 *88:10 0.000379422
21 *63:10 *88:22 1.0067e-05
*RES
1 *583:Y *88:4 23 
2 *88:4 *88:10 24.2593 
3 *88:10 *88:22 49.1014 
4 *88:22 *633:A2 23 
5 *88:10 *584:A2 47.9221 
6 *88:4 *616:A2 24.595 
*END

*D_NET *89 0.00160619
*CONN
*I *585:B1 I *D sky130_fd_sc_hd__a41o_1
*I *584:X O *D sky130_fd_sc_hd__o21a_1
*CAP
1 *585:B1 7.75533e-05
2 *584:X 0.000450379
3 *89:10 0.000527933
4 *585:B1 *700:CLK 1.84831e-05
5 *89:10 *98:10 8.36198e-05
6 *89:10 *100:12 0.000189176
7 *89:10 *127:30 3.76854e-05
8 *89:10 *183:8 8.78864e-05
9 *584:A2 *89:10 0.000114237
10 *585:A2 *585:B1 1.1258e-05
11 *81:86 *585:B1 7.97439e-06
*RES
1 *584:X *89:10 45.83 
2 *89:10 *585:B1 39.4707 
*END

*D_NET *90 0.00649128
*CONN
*I *588:A I *D sky130_fd_sc_hd__or3_1
*I *597:B I *D sky130_fd_sc_hd__or4_1
*I *593:A1 I *D sky130_fd_sc_hd__a41o_1
*I *600:B I *D sky130_fd_sc_hd__or4_1
*I *586:Y O *D sky130_fd_sc_hd__inv_2
*CAP
1 *588:A 0
2 *597:B 0
3 *593:A1 0.000386954
4 *600:B 5.50588e-05
5 *586:Y 9.84458e-05
6 *90:24 0.000662218
7 *90:20 0.000962204
8 *90:12 0.000879636
9 *90:8 0.000236082
10 *593:A1 *593:B1 9.88259e-05
11 *593:A1 *127:22 0.000124958
12 *90:8 *91:27 0
13 *90:8 *126:18 4.92689e-05
14 *90:8 *126:26 8.62783e-05
15 *90:12 *91:27 0.000227208
16 *90:12 *92:10 0.000269775
17 *90:12 *126:99 4.66047e-05
18 *90:20 *579:A 3.21898e-05
19 *90:20 *597:C 9.06073e-05
20 *90:20 *91:27 0
21 *90:20 *94:6 2.50118e-05
22 *90:20 *126:99 0.000344005
23 *90:20 *139:10 0
24 *90:20 *200:12 1.21972e-05
25 *90:20 *201:68 4.53082e-05
26 *588:B *90:20 0.000215279
27 *593:A4 *593:A1 0.000160915
28 *594:B *90:20 5.3304e-05
29 *618:S *600:B 1.13812e-05
30 *81:10 *90:20 0.000184634
31 *81:12 *90:20 3.46013e-05
32 *81:69 *593:A1 0.000214412
33 *81:69 *600:B 7.43673e-05
34 *82:101 *593:A1 1.66298e-05
35 *82:126 *593:A1 5.56279e-05
36 *84:14 *90:20 6.63159e-06
37 *86:10 *593:A1 0.000234666
38 *86:10 *90:20 0.000230723
39 *86:10 *90:24 0.000265277
*RES
1 *586:Y *90:8 39.9057 
2 *90:8 *90:12 19.4329 
3 *90:12 *90:20 43.775 
4 *90:20 *90:24 18.0036 
5 *90:24 *600:B 39.2014 
6 *90:24 *593:A1 46.6793 
7 *90:20 *597:B 23 
8 *90:12 *588:A 23 
*END

*D_NET *91 0.00476268
*CONN
*I *592:A3 I *D sky130_fd_sc_hd__o31a_1
*I *588:C I *D sky130_fd_sc_hd__or3_1
*I *594:C I *D sky130_fd_sc_hd__or3_1
*I *587:X O *D sky130_fd_sc_hd__or4b_1
*CAP
1 *592:A3 0.000417231
2 *588:C 0
3 *594:C 6.24771e-05
4 *587:X 0.000542185
5 *91:27 0.000923732
6 *91:10 0.00111116
7 *592:A3 *592:A1 5.90675e-06
8 *592:A3 *592:A2 5.91541e-05
9 *592:A3 *592:B1 0.000227208
10 *592:A3 *603:A 9.84851e-05
11 *592:A3 *672:A 0
12 *592:A3 *102:10 5.50106e-05
13 *594:C *201:68 5.5792e-05
14 *91:10 *579:A 3.13192e-05
15 *91:10 *201:72 1.0092e-05
16 *91:10 *202:79 2.35118e-06
17 *91:10 *202:100 6.70982e-06
18 *91:27 *126:26 0
19 *91:27 *139:10 0
20 *91:27 *198:10 0
21 *91:27 *201:72 0.000150033
22 *91:27 *201:89 0.000139197
23 *611:B1 *91:10 0.000189848
24 *24:6 *91:10 0.000267776
25 *64:10 *91:10 3.26241e-05
26 *84:14 *594:C 9.66585e-05
27 *84:14 *91:27 5.0518e-05
28 *90:8 *91:27 0
29 *90:12 *91:27 0.000227208
30 *90:20 *91:27 0
*RES
1 *587:X *91:10 46.2443 
2 *91:10 *594:C 39.595 
3 *91:10 *91:27 24.135 
4 *91:27 *588:C 23 
5 *91:27 *592:A3 31.2857 
*END

*D_NET *92 0.00523194
*CONN
*I *589:S I *D sky130_fd_sc_hd__mux2_1
*I *588:X O *D sky130_fd_sc_hd__or3_1
*CAP
1 *589:S 0
2 *588:X 0.00118972
3 *92:20 0.000326268
4 *92:10 0.00151599
5 *92:10 *699:D 3.22051e-05
6 *92:10 *126:99 0.000310641
7 *92:10 *127:121 0.000171898
8 *92:10 *142:62 0.000358854
9 *92:10 *156:8 3.71369e-05
10 *92:20 *589:A1 4.9662e-05
11 *92:20 *669:A 6.6869e-05
12 *92:20 *119:29 1.32939e-05
13 *92:20 *144:18 7.80251e-05
14 *92:20 *146:21 0
15 *589:A0 *92:20 0.000377181
16 *49:10 *92:10 7.73389e-05
17 *82:8 *92:10 0.000357087
18 *90:12 *92:10 0.000269775
*RES
1 *588:X *92:10 49.0379 
2 *92:10 *92:20 37.4986 
3 *92:20 *589:S 23 
*END

*D_NET *93 0.000606206
*CONN
*I *590:A I *D sky130_fd_sc_hd__clkbuf_1
*I *589:X O *D sky130_fd_sc_hd__mux2_1
*CAP
1 *590:A 5.72862e-05
2 *589:X 7.07459e-05
3 *93:8 0.000128032
4 *590:A *155:18 8.1796e-05
5 *93:8 *669:A 1.01436e-05
6 *93:8 *144:18 0.000169683
7 *93:8 *146:21 0
8 *71:8 *93:8 8.85189e-05
*RES
1 *589:X *93:8 40.2579 
2 *93:8 *590:A 39.5743 
*END

*D_NET *94 0.00307759
*CONN
*I *603:C I *D sky130_fd_sc_hd__or4_1
*I *592:A2 I *D sky130_fd_sc_hd__o31a_1
*I *597:C I *D sky130_fd_sc_hd__or4_1
*I *591:Y O *D sky130_fd_sc_hd__inv_2
*CAP
1 *603:C 0
2 *592:A2 0.000107793
3 *597:C 0.000153559
4 *591:Y 1.47366e-05
5 *94:23 0.000312601
6 *94:6 0.000373104
7 *592:A2 *592:A1 0.000440163
8 *592:A2 *592:B1 0.000228909
9 *592:A2 *603:A 5.50106e-05
10 *94:23 *592:A1 3.91386e-05
11 *94:23 *603:A 0.000330923
12 *94:23 *139:10 9.86386e-05
13 *94:23 *201:110 8.62876e-05
14 *592:A3 *592:A2 5.91541e-05
15 *597:D *597:C 2.64616e-05
16 *84:14 *597:C 2.64616e-05
17 *84:14 *94:6 2.95526e-05
18 *85:49 *597:C 2.20564e-05
19 *85:49 *94:23 0.000168788
20 *85:53 *597:C 1.61385e-05
21 *85:55 *597:C 9.84137e-05
22 *86:10 *597:C 0.000274077
23 *90:20 *597:C 9.06073e-05
24 *90:20 *94:6 2.50118e-05
*RES
1 *591:Y *94:6 23.6214 
2 *94:6 *597:C 27.9093 
3 *94:6 *94:23 36.5457 
4 *94:23 *592:A2 27.9093 
5 *94:23 *603:C 23 
*END

*D_NET *95 0.00060077
*CONN
*I *593:B1 I *D sky130_fd_sc_hd__a41o_1
*I *592:X O *D sky130_fd_sc_hd__o31a_1
*CAP
1 *593:B1 8.59334e-05
2 *592:X 8.59334e-05
3 *593:B1 *672:A 0.000272652
4 *593:A1 *593:B1 9.88259e-05
5 *593:A4 *593:B1 2.93335e-05
6 *82:126 *593:B1 2.80918e-05
*RES
1 *592:X *593:B1 49.0036 
*END

*D_NET *96 0.00440875
*CONN
*I *595:S I *D sky130_fd_sc_hd__mux2_1
*I *594:X O *D sky130_fd_sc_hd__or3_1
*CAP
1 *595:S 0
2 *594:X 0.000975653
3 *96:18 0.000616235
4 *96:10 0.00159189
5 *96:10 *691:CLK 0.000171904
6 *96:10 *731:A 0.000100672
7 *96:10 *168:12 9.22287e-05
8 *96:18 *595:A1 5.82853e-05
9 *96:18 *97:10 0.000109915
10 *595:A0 *96:18 1.61385e-05
11 *82:14 *96:10 0.000144656
12 *82:46 *96:10 0.000527836
13 *84:14 *96:10 3.34276e-06
*RES
1 *594:X *96:10 40.69 
2 *96:10 *96:18 42.47 
3 *96:18 *595:S 23 
*END

*D_NET *97 0.000565952
*CONN
*I *596:A I *D sky130_fd_sc_hd__clkbuf_1
*I *595:X O *D sky130_fd_sc_hd__mux2_1
*CAP
1 *596:A 0
2 *595:X 0.000228018
3 *97:10 0.000228018
4 *96:18 *97:10 0.000109915
*RES
1 *595:X *97:10 41.9564 
2 *97:10 *596:A 38 
*END

*D_NET *98 0.00332888
*CONN
*I *598:S I *D sky130_fd_sc_hd__mux2_1
*I *597:X O *D sky130_fd_sc_hd__or4_1
*CAP
1 *598:S 0.0003734
2 *597:X 0.000440263
3 *98:10 0.000813663
4 *598:S *598:A1 2.32004e-05
5 *598:S *753:A 0.000314157
6 *98:10 *127:22 0.000315092
7 *98:10 *127:30 6.22448e-06
8 *98:10 *201:99 8.93394e-05
9 *585:A3 *98:10 1.63351e-05
10 *56:16 *598:S 0.000189276
11 *81:86 *98:10 0.000188164
12 *82:126 *598:S 0.000462419
13 *82:138 *598:S 1.37232e-05
14 *89:10 *98:10 8.36198e-05
*RES
1 *597:X *98:10 45.8507 
2 *98:10 *598:S 47.6943 
*END

*D_NET *99 0.000599738
*CONN
*I *599:A I *D sky130_fd_sc_hd__clkbuf_1
*I *598:X O *D sky130_fd_sc_hd__mux2_1
*CAP
1 *599:A 0
2 *598:X 0.000299869
3 *99:12 0.000299869
4 *82:138 *99:12 0
*RES
1 *598:X *99:12 43.4893 
2 *99:12 *599:A 38 
*END

*D_NET *100 0.00144576
*CONN
*I *601:S I *D sky130_fd_sc_hd__mux2_1
*I *600:X O *D sky130_fd_sc_hd__or4_1
*CAP
1 *601:S 0
2 *600:X 0.00050401
3 *100:12 0.00050401
4 *100:12 *584:B1 5.81185e-05
5 *100:12 *601:A1 0.000111373
6 *584:A1 *100:12 6.68705e-05
7 *584:A2 *100:12 1.21972e-05
8 *89:10 *100:12 0.000189176
*RES
1 *600:X *100:12 33.6886 
2 *100:12 *601:S 23 
*END

*D_NET *101 0.000351012
*CONN
*I *602:A I *D sky130_fd_sc_hd__clkbuf_1
*I *601:X O *D sky130_fd_sc_hd__mux2_1
*CAP
1 *602:A 9.40863e-05
2 *601:X 6.97157e-05
3 *101:8 0.000163802
4 *101:8 *153:12 2.34077e-05
*RES
1 *601:X *101:8 39.2014 
2 *101:8 *602:A 39.9471 
*END

*D_NET *102 0.000542543
*CONN
*I *604:S I *D sky130_fd_sc_hd__mux2_1
*I *603:X O *D sky130_fd_sc_hd__or4_1
*CAP
1 *604:S 0
2 *603:X 0.000163671
3 *102:10 0.000163671
4 *102:10 *139:10 0.000160191
5 *102:10 *147:12 0
6 *592:A3 *102:10 5.50106e-05
*RES
1 *603:X *102:10 40.8793 
2 *102:10 *604:S 38 
*END

*D_NET *103 0.00121271
*CONN
*I *605:A I *D sky130_fd_sc_hd__clkbuf_1
*I *604:X O *D sky130_fd_sc_hd__mux2_1
*CAP
1 *605:A 0
2 *604:X 0.000367033
3 *103:10 0.000367033
4 *103:10 *127:92 0.000168754
5 *103:10 *129:10 0.000194327
6 *103:10 *129:40 3.70094e-05
7 *103:10 *139:10 0
8 *103:10 *139:26 0
9 *103:10 *144:39 2.30292e-05
10 *103:10 *166:14 0
11 *50:8 *103:10 5.55278e-05
*RES
1 *604:X *103:10 46.5136 
2 *103:10 *605:A 38 
*END

*D_NET *104 0.00343861
*CONN
*I *607:S I *D sky130_fd_sc_hd__mux2_1
*I *606:Y O *D sky130_fd_sc_hd__nor2_1
*CAP
1 *607:S 0
2 *606:Y 0.00108742
3 *104:12 8.92698e-05
4 *104:6 0.00117669
5 *104:6 *655:A 2.12033e-05
6 *104:6 *142:70 0.000162788
7 *104:6 *156:20 0.000142492
8 *589:A0 *104:12 7.35277e-05
9 *595:A0 *104:12 8.87259e-05
10 *3:13 *104:12 4.13395e-05
11 *85:16 *104:6 0.000539098
12 *85:49 *104:6 1.60613e-05
*RES
1 *606:Y *104:6 39.3436 
2 *104:6 *104:12 32.2579 
3 *104:12 *607:S 23 
*END

*D_NET *105 0.000907923
*CONN
*I *608:A I *D sky130_fd_sc_hd__clkbuf_1
*I *607:X O *D sky130_fd_sc_hd__mux2_1
*CAP
1 *608:A 0
2 *607:X 0.000290961
3 *105:10 0.000290961
4 *105:10 *156:20 0
5 *3:13 *105:10 0.000182167
6 *65:8 *105:10 4.08641e-05
7 *82:46 *105:10 0.000102971
*RES
1 *607:X *105:10 44.1729 
2 *105:10 *608:A 38 
*END

*D_NET *106 0.00355782
*CONN
*I *611:A2 I *D sky130_fd_sc_hd__o22a_1
*I *643:A I *D sky130_fd_sc_hd__nor2_1
*I *609:Y O *D sky130_fd_sc_hd__inv_2
*CAP
1 *611:A2 0.000481077
2 *643:A 0.000204612
3 *609:Y 0.000182049
4 *106:8 0.000867738
5 *611:A2 *587:C 0.000100061
6 *611:A2 *142:36 1.56542e-05
7 *611:A2 *202:100 0.000564792
8 *611:A2 *207:34 0.000350835
9 *611:A2 *207:49 5.12834e-05
10 *643:A *206:16 0
11 *106:8 *207:49 5.3304e-05
12 *106:8 *207:64 0.00031021
13 *611:B1 *611:A2 2.60289e-05
14 *643:B *611:A2 0.000154298
15 *643:B *643:A 0.00019588
*RES
1 *609:Y *106:8 42.4329 
2 *106:8 *643:A 42.35 
3 *106:8 *611:A2 49.0407 
*END

*D_NET *107 0.00333882
*CONN
*I *613:B1 I *D sky130_fd_sc_hd__a22o_1
*I *616:B1_N I *D sky130_fd_sc_hd__a21boi_1
*I *612:X O *D sky130_fd_sc_hd__or2b_1
*CAP
1 *613:B1 0.000165633
2 *616:B1_N 0.000346618
3 *612:X 0.000142516
4 *107:10 0.000654766
5 *613:B1 *613:A1 0.000241343
6 *613:B1 *613:B2 9.70332e-05
7 *613:B1 *618:A1 0.000182826
8 *616:B1_N *616:A1 2.02872e-05
9 *616:B1_N *110:12 9.84851e-05
10 *616:B1_N *166:14 0.000636198
11 *616:B1_N *202:12 0
12 *107:10 *111:10 8.36198e-05
13 *107:10 *166:14 0.000157496
14 *583:B *616:B1_N 0.000229821
15 *583:B *107:10 1.12487e-05
16 *613:A2 *107:10 2.23551e-05
17 *618:S *613:B1 9.84851e-05
18 *730:A *107:10 5.3304e-05
19 *87:16 *613:B1 9.67842e-05
*RES
1 *612:X *107:10 40.8793 
2 *107:10 *616:B1_N 48.1707 
3 *107:10 *613:B1 44.0486 
*END

*D_NET *108 0.00146715
*CONN
*I *615:B I *D sky130_fd_sc_hd__nor2_1
*I *614:Y O *D sky130_fd_sc_hd__nor2_1
*CAP
1 *615:B 3.22865e-05
2 *614:Y 0.000364517
3 *108:10 0.000396803
4 *615:B *727:A 9.66668e-05
5 *108:10 *636:A1 0.000132638
6 *108:10 *201:50 0.00018221
7 *582:B *108:10 0.000134767
8 *615:A *615:B 5.58003e-05
9 *64:10 *108:10 5.66866e-05
10 *87:12 *615:B 1.47709e-05
*RES
1 *614:Y *108:10 43.8621 
2 *108:10 *615:B 39.0979 
*END

*D_NET *109 0.0015789
*CONN
*I *617:A2 I *D sky130_fd_sc_hd__a22o_1
*I *615:Y O *D sky130_fd_sc_hd__nor2_1
*CAP
1 *617:A2 0.000341279
2 *615:Y 0.0002637
3 *109:8 0.00060498
4 *617:A2 *617:B2 5.50049e-05
5 *617:A2 *694:CLK 1.54424e-05
6 *617:A2 *694:D 0.000182826
7 *617:A2 *159:28 7.44161e-06
8 *109:8 *636:A1 0.000108227
9 *109:8 *201:29 0
10 *109:8 *207:27 0
*RES
1 *615:Y *109:8 42.0186 
2 *109:8 *617:A2 43.4271 
*END

*D_NET *110 0.00316463
*CONN
*I *618:A1 I *D sky130_fd_sc_hd__mux2_1
*I *617:B1 I *D sky130_fd_sc_hd__a22o_1
*I *616:Y O *D sky130_fd_sc_hd__a21boi_1
*CAP
1 *618:A1 0.000278092
2 *617:B1 1.49804e-05
3 *616:Y 0.000349811
4 *110:12 0.000642884
5 *617:B1 *617:B2 5.50106e-05
6 *617:B1 *184:21 5.50106e-05
7 *618:A1 *184:21 6.7177e-06
8 *618:A1 *201:29 0
9 *618:A1 *205:21 0.000127272
10 *618:A1 *205:23 0.000390685
11 *618:A1 *205:51 5.3304e-05
12 *618:A1 *205:59 0.000182826
13 *110:12 *616:A1 0.000475656
14 *110:12 *201:12 0
15 *110:12 *205:21 0.000165593
16 *613:B1 *618:A1 0.000182826
17 *616:B1_N *110:12 9.84851e-05
18 *33:10 *110:12 2.4754e-05
19 *62:8 *110:12 0
20 *87:16 *618:A1 6.07175e-05
*RES
1 *616:Y *110:12 46.9279 
2 *110:12 *617:B1 38.6214 
3 *110:12 *618:A1 45.6436 
*END

*D_NET *111 0.0013854
*CONN
*I *619:A I *D sky130_fd_sc_hd__clkbuf_1
*I *618:X O *D sky130_fd_sc_hd__mux2_1
*CAP
1 *619:A 3.40449e-05
2 *618:X 0.000291736
3 *111:10 0.000325781
4 *619:A *202:45 5.58003e-05
5 *619:A *202:60 8.68775e-05
6 *111:10 *613:A1 9.58714e-05
7 *111:10 *166:14 0.000116839
8 *613:A2 *111:10 1.0092e-05
9 *618:S *111:10 0.000142055
10 *85:70 *619:A 0.000142678
11 *107:10 *111:10 8.36198e-05
*RES
1 *618:X *111:10 43.8207 
2 *111:10 *619:A 39.5743 
*END

*D_NET *112 0.00280633
*CONN
*I *637:A I *D sky130_fd_sc_hd__nor2_1
*I *621:A2 I *D sky130_fd_sc_hd__a21o_1
*I *620:Y O *D sky130_fd_sc_hd__inv_2
*CAP
1 *637:A 0
2 *621:A2 8.19458e-05
3 *620:Y 6.10551e-05
4 *112:25 0.000600908
5 *112:6 0.000743909
6 *621:A2 *621:A1 0.000223841
7 *621:A2 *631:A 3.84128e-05
8 *621:A2 *163:21 0.000135039
9 *112:6 *163:21 3.22879e-05
10 *112:25 *589:A1 2.98648e-05
11 *112:25 *673:B 2.03764e-06
12 *112:25 *119:29 0.00067463
13 *112:25 *144:18 0.000182397
*RES
1 *620:Y *112:6 24.0979 
2 *112:6 *621:A2 26.7493 
3 *112:6 *112:25 41.89 
4 *112:25 *637:A 23 
*END

*D_NET *113 0.00414427
*CONN
*I *625:B1_N I *D sky130_fd_sc_hd__a21bo_1
*I *623:B1 I *D sky130_fd_sc_hd__a32o_1
*I *622:X O *D sky130_fd_sc_hd__or2b_1
*CAP
1 *625:B1_N 7.06302e-05
2 *623:B1 0
3 *622:X 0.000658931
4 *113:26 0.0011171
5 *113:12 0.00184666
6 *625:B1_N *208:14 0
7 *625:B1_N *220:10 3.70094e-05
8 *625:B1_N *220:32 0
9 *113:26 *685:A1 0.000104169
10 *113:26 *745:A 4.80423e-06
11 *113:26 *143:45 2.31209e-05
12 *113:26 *208:52 1.21972e-05
13 *113:26 *208:62 4.08226e-05
14 *113:26 *209:27 3.41998e-06
15 *113:26 *220:41 0.000225399
*RES
1 *622:X *113:12 48.0085 
2 *113:12 *113:26 29.3983 
3 *113:26 *623:B1 23 
4 *113:12 *625:B1_N 47.0254 
*END

*D_NET *114 0.00284875
*CONN
*I *634:A2 I *D sky130_fd_sc_hd__a21o_1
*I *625:A2 I *D sky130_fd_sc_hd__a21bo_1
*I *624:Y O *D sky130_fd_sc_hd__nand3_1
*CAP
1 *634:A2 0
2 *625:A2 0
3 *624:Y 0.000110241
4 *114:29 0.00072884
5 *114:16 0.000155613
6 *114:6 0.000994693
7 *114:6 *126:121 8.39585e-06
8 *114:6 *208:20 9.91101e-05
9 *114:6 *209:46 6.17437e-06
10 *114:16 *116:14 5.56279e-05
11 *114:16 *208:32 4.09185e-05
12 *114:16 *220:32 7.32674e-05
13 *114:29 *126:121 9.88574e-06
14 *114:29 *157:10 0
15 *114:29 *208:20 0.000565988
*RES
1 *624:Y *114:6 24.5743 
2 *114:6 *114:16 33.0243 
3 *114:16 *625:A2 23 
4 *114:6 *114:29 41.1029 
5 *114:29 *634:A2 23 
*END

*D_NET *115 0.00349409
*CONN
*I *630:A2 I *D sky130_fd_sc_hd__a21oi_1
*I *627:A2 I *D sky130_fd_sc_hd__a21oi_1
*I *628:A1 I *D sky130_fd_sc_hd__a21oi_1
*I *625:X O *D sky130_fd_sc_hd__a21bo_1
*CAP
1 *630:A2 0.000340622
2 *627:A2 0
3 *628:A1 0
4 *625:X 0.000240181
5 *115:39 0.000329228
6 *115:20 0.000133574
7 *115:12 0.000815629
8 *115:8 0.000933631
9 *630:A2 *745:A 0
10 *630:A2 *118:16 5.50049e-05
11 *630:A2 *185:10 3.76854e-05
12 *630:A2 *186:12 0.000135411
13 *630:A2 *197:8 1.94693e-05
14 *630:A2 *197:16 0
15 *115:8 *745:A 0
16 *115:8 *118:16 0
17 *115:20 *116:14 1.14452e-05
18 *115:20 *118:16 1.02133e-05
19 *115:20 *182:8 3.83778e-05
20 *115:39 *627:A1 5.50106e-05
21 *115:39 *627:B1 3.91386e-05
22 *115:39 *628:B1 0
23 *115:39 *652:A 1.89493e-05
24 *115:39 *208:10 3.47776e-05
25 *115:39 *208:14 1.14452e-05
26 *695:RESET_B *115:39 9.18637e-05
27 *696:RESET_B *115:39 1.95443e-05
28 *36:8 *115:20 3.884e-05
29 *36:8 *115:39 8.4047e-05
30 *58:10 *115:39 0
*RES
1 *625:X *115:8 42.0186 
2 *115:8 *115:12 18.9564 
3 *115:12 *115:20 32.5271 
4 *115:20 *628:A1 23 
5 *115:12 *115:39 35.8207 
6 *115:39 *627:A2 23 
7 *115:8 *630:A2 45.105 
*END

*D_NET *116 0.00122711
*CONN
*I *628:A2 I *D sky130_fd_sc_hd__a21oi_1
*I *626:X O *D sky130_fd_sc_hd__a21bo_1
*CAP
1 *628:A2 0
2 *626:X 0.000459318
3 *116:14 0.000459318
4 *116:14 *118:10 5.25436e-05
5 *116:14 *118:16 3.11916e-05
6 *116:14 *143:68 8.94487e-05
7 *116:14 *208:32 5.84159e-06
8 *116:14 *220:14 4.77213e-05
9 *116:14 *220:32 1.46522e-05
10 *36:8 *116:14 0
11 *114:16 *116:14 5.56279e-05
12 *115:20 *116:14 1.14452e-05
*RES
1 *626:X *116:14 45.3329 
2 *116:14 *628:A2 38 
*END

*D_NET *117 0.000209655
*CONN
*I *628:B1 I *D sky130_fd_sc_hd__a21oi_1
*I *627:Y O *D sky130_fd_sc_hd__a21oi_1
*CAP
1 *628:B1 4.39534e-05
2 *627:Y 4.39534e-05
3 *628:B1 *627:B1 1.94693e-05
4 *628:B1 *652:A 1.37232e-05
5 *696:RESET_B *628:B1 2.18409e-05
6 *58:10 *628:B1 6.67149e-05
7 *115:39 *628:B1 0
*RES
1 *627:Y *628:B1 47.6157 
*END

*D_NET *118 0.00260088
*CONN
*I *630:B1 I *D sky130_fd_sc_hd__a21oi_1
*I *629:Y O *D sky130_fd_sc_hd__nor2_1
*CAP
1 *630:B1 0
2 *629:Y 8.33179e-05
3 *118:16 0.000848613
4 *118:10 0.000931931
5 *118:10 *220:14 9.64943e-05
6 *118:10 *220:81 1.5769e-05
7 *118:16 *143:68 8.50457e-05
8 *118:16 *182:8 0.00029697
9 *118:16 *197:8 9.37883e-05
10 *118:16 *208:14 0
11 *630:A2 *118:16 5.50049e-05
12 *115:8 *118:16 0
13 *115:20 *118:16 1.02133e-05
14 *116:14 *118:10 5.25436e-05
15 *116:14 *118:16 3.11916e-05
*RES
1 *629:Y *118:10 40.0714 
2 *118:10 *118:16 30.2664 
3 *118:16 *630:B1 23 
*END

*D_NET *119 0.00289226
*CONN
*I *637:B I *D sky130_fd_sc_hd__nor2_1
*I *632:A2 I *D sky130_fd_sc_hd__a21o_1
*I *631:Y O *D sky130_fd_sc_hd__inv_2
*CAP
1 *637:B 0
2 *632:A2 0
3 *631:Y 0
4 *119:29 0.000431161
5 *119:16 0.000313016
6 *119:4 0.000744178
7 *119:16 *621:B1 0
8 *119:16 *127:96 7.9759e-05
9 *119:16 *127:102 9.84851e-05
10 *119:16 *127:121 0.000390024
11 *119:16 *163:21 0
12 *119:16 *219:12 1.12487e-05
13 *119:16 *219:24 7.39261e-05
14 *119:29 *589:A1 7.53384e-06
15 *119:29 *631:A 5.50049e-05
16 *119:29 *714:CLK 0
17 *119:29 *127:121 0
18 *119:29 *219:12 0
19 *92:20 *119:29 1.32939e-05
20 *112:25 *119:29 0.00067463
*RES
1 *631:Y *119:4 23 
2 *119:4 *119:16 37.685 
3 *119:16 *632:A2 23 
4 *119:4 *119:29 40.8129 
5 *119:29 *637:B 23 
*END

*D_NET *120 0.00236471
*CONN
*I *636:B1 I *D sky130_fd_sc_hd__a32o_1
*I *635:Y O *D sky130_fd_sc_hd__inv_2
*CAP
1 *636:B1 7.7984e-05
2 *635:Y 0.000339216
3 *120:8 0.0004172
4 *636:B1 *636:A1 0
5 *636:B1 *636:B2 3.22879e-05
6 *636:B1 *159:8 0.000249739
7 *636:B1 *206:26 1.99409e-05
8 *636:B1 *207:14 6.9805e-05
9 *120:8 *142:12 7.84598e-05
10 *120:8 *142:32 0.000137473
11 *120:8 *142:43 7.92051e-05
12 *120:8 *142:62 7.63295e-05
13 *120:8 *198:10 0.000787073
*RES
1 *635:Y *120:8 48.7093 
2 *120:8 *636:B1 41.2625 
*END

*D_NET *121 0.00148199
*CONN
*I *639:B I *D sky130_fd_sc_hd__or2_1
*I *638:X O *D sky130_fd_sc_hd__mux4_1
*CAP
1 *639:B 0.00049181
2 *638:X 6.97157e-05
3 *121:8 0.000561526
4 *639:B *144:92 0.000335527
5 *121:8 *638:A2 2.34077e-05
*RES
1 *638:X *121:8 39.2014 
2 *121:8 *639:B 49.02 
*END

*D_NET *122 0.00121414
*CONN
*I *642:A2 I *D sky130_fd_sc_hd__a311o_1
*I *639:X O *D sky130_fd_sc_hd__or2_1
*CAP
1 *642:A2 0
2 *639:X 0.000196897
3 *122:10 0.000196897
4 *122:10 *642:A1 0.000411281
5 *122:10 *126:16 0.000409059
*RES
1 *639:X *122:10 44.525 
2 *122:10 *642:A2 38 
*END

*D_NET *123 0.00339512
*CONN
*I *641:A I *D sky130_fd_sc_hd__or2b_1
*I *640:X O *D sky130_fd_sc_hd__mux4_1
*CAP
1 *641:A 0
2 *640:X 0.000576218
3 *123:16 0.000721458
4 *123:8 0.00129768
5 *123:8 *640:S0 5.3304e-05
6 *123:8 *209:87 4.68377e-05
7 *123:8 *209:112 1.34066e-05
8 *123:8 *217:35 0.000131644
9 *123:16 *638:A2 3.70094e-05
10 *123:16 *640:A1 0
11 *123:16 *640:S0 8.4047e-05
12 *123:16 *732:A 0.000102093
13 *123:16 *129:55 0
14 *123:16 *151:8 8.91915e-05
15 *123:16 *169:10 7.05156e-05
16 *123:16 *208:62 0.000115013
17 *123:16 *210:18 5.67058e-05
*RES
1 *640:X *123:8 45.2914 
2 *123:8 *123:16 29.645 
3 *123:16 *641:A 23 
*END

*D_NET *124 0.00144899
*CONN
*I *642:A3 I *D sky130_fd_sc_hd__a311o_1
*I *641:X O *D sky130_fd_sc_hd__or2b_1
*CAP
1 *642:A3 0.000133165
2 *641:X 0.000342407
3 *124:8 0.000475573
4 *642:A3 *138:10 7.73389e-05
5 *124:8 *728:A 0
6 *124:8 *126:8 4.61178e-05
7 *124:8 *139:26 0
8 *124:8 *147:23 0.000206868
9 *124:8 *210:26 0.000167522
*RES
1 *641:X *124:8 45.8921 
2 *124:8 *642:A3 40.5271 
*END

*D_NET *125 0.000536365
*CONN
*I *645:A I *D sky130_fd_sc_hd__clkbuf_1
*I *644:X O *D sky130_fd_sc_hd__and4_1
*CAP
1 *645:A 0.00015606
2 *644:X 4.7616e-05
3 *125:8 0.000203676
4 *125:8 *143:45 8.78864e-05
5 *125:8 *198:10 4.11274e-05
*RES
1 *644:X *125:8 39.2014 
2 *125:8 *645:A 40.7757 
*END

*D_NET *126 0.020626
*CONN
*I *653:A I *D sky130_fd_sc_hd__inv_2
*I *652:A I *D sky130_fd_sc_hd__inv_2
*I *651:A I *D sky130_fd_sc_hd__inv_2
*I *654:A I *D sky130_fd_sc_hd__inv_2
*I *656:A I *D sky130_fd_sc_hd__inv_2
*I *655:A I *D sky130_fd_sc_hd__inv_2
*I *649:A I *D sky130_fd_sc_hd__inv_2
*I *650:A I *D sky130_fd_sc_hd__inv_2
*I *657:A I *D sky130_fd_sc_hd__inv_2
*I *648:A I *D sky130_fd_sc_hd__inv_2
*I *647:X O *D sky130_fd_sc_hd__buf_4
*CAP
1 *653:A 0
2 *652:A 0.000159841
3 *651:A 8.67554e-05
4 *654:A 0
5 *656:A 3.70406e-05
6 *655:A 0.000269149
7 *649:A 0
8 *650:A 0
9 *657:A 0
10 *648:A 0.000302898
11 *647:X 0.000145665
12 *126:163 0.000622357
13 *126:121 0.00117645
14 *126:99 0.000536613
15 *126:75 0.000634333
16 *126:56 0.000753117
17 *126:38 0.000877066
18 *126:30 0.0014578
19 *126:26 0.00148902
20 *126:18 0.00143438
21 *126:16 0.000972058
22 *126:12 0.00162749
23 *126:8 0.000973391
24 *651:A *629:A 4.66969e-05
25 *651:A *220:81 1.21972e-05
26 *652:A *208:14 0.000153505
27 *655:A *142:70 0.00040655
28 *656:A *201:68 9.66668e-05
29 *126:8 *210:26 0
30 *126:12 *210:18 0.000183733
31 *126:12 *210:33 0.000168687
32 *126:16 *642:A1 0.000102367
33 *126:16 *147:12 0
34 *126:16 *147:23 0.000285518
35 *126:16 *198:10 0
36 *126:18 *128:10 5.56203e-05
37 *126:18 *147:12 0
38 *126:18 *198:10 0
39 *126:26 *198:10 0
40 *126:30 *142:12 5.78389e-05
41 *126:30 *142:32 0.000138638
42 *126:30 *142:43 8.27077e-05
43 *126:30 *142:62 2.56377e-05
44 *126:30 *142:70 0
45 *126:30 *198:10 0
46 *126:30 *206:10 0
47 *126:30 *206:37 0.000419878
48 *126:30 *207:10 0.000303269
49 *126:38 *198:10 0
50 *126:56 *201:12 0
51 *126:99 *579:A 0.000135616
52 *126:99 *201:89 3.75905e-05
53 *126:121 *624:A 0.000493714
54 *126:121 *208:14 3.55303e-05
55 *126:121 *208:20 0.000414466
56 *126:121 *209:46 3.22051e-05
57 *126:121 *210:33 1.24376e-05
58 *126:121 *220:10 0
59 *126:163 *640:A0 0
60 *126:163 *683:A0 9.67842e-05
61 *126:163 *129:59 0
62 *126:163 *147:23 0
63 *126:163 *170:8 1.58805e-05
64 *126:163 *197:16 4.95081e-05
65 *126:163 *210:10 0.000113873
66 *126:163 *210:14 0.000110116
67 *628:B1 *652:A 1.37232e-05
68 *643:B *126:30 0
69 *691:SET_B *126:30 0.000245481
70 *693:RESET_B *126:75 5.67058e-05
71 *696:RESET_B *652:A 2.93845e-05
72 *3:23 *126:18 2.82105e-05
73 *35:10 *126:30 2.01531e-05
74 *35:10 *126:56 3.59965e-05
75 *38:10 *126:163 0.000116314
76 *39:10 *126:16 9.53602e-05
77 *42:10 *648:A 3.22879e-05
78 *42:10 *126:38 7.53384e-06
79 *82:14 *126:30 0
80 *84:14 *656:A 9.41704e-05
81 *85:16 *655:A 0.000515412
82 *85:49 *655:A 8.64424e-05
83 *85:49 *126:26 0.000255759
84 *90:8 *126:18 4.92689e-05
85 *90:8 *126:26 8.62783e-05
86 *90:12 *126:99 4.66047e-05
87 *90:20 *126:99 0.000344005
88 *91:27 *126:26 0
89 *92:10 *126:99 0.000310641
90 *104:6 *655:A 2.12033e-05
91 *114:6 *126:121 8.39585e-06
92 *114:29 *126:121 9.88574e-06
93 *115:39 *652:A 1.89493e-05
94 *122:10 *126:16 0.000409059
95 *124:8 *126:8 4.61178e-05
*RES
1 *647:X *126:8 40.61 
2 *126:8 *126:12 18.9564 
3 *126:12 *126:16 28.8786 
4 *126:16 *126:18 9.30071 
5 *126:18 *126:26 21.4836 
6 *126:26 *126:30 32.4 
7 *126:30 *126:38 24.7979 
8 *126:38 *648:A 28.8621 
9 *126:38 *657:A 23 
10 *126:30 *126:56 17.4236 
11 *126:56 *650:A 23 
12 *126:56 *126:75 41.9936 
13 *126:75 *649:A 23 
14 *126:26 *655:A 31.5964 
15 *126:18 *126:99 39.1557 
16 *126:99 *656:A 39.0979 
17 *126:16 *654:A 38 
18 *126:12 *126:121 33.5807 
19 *126:121 *651:A 39.595 
20 *126:121 *652:A 41.8736 
21 *126:8 *126:163 28.3814 
22 *126:163 *653:A 23 
*END

*D_NET *127 0.0197026
*CONN
*I *666:A I *D sky130_fd_sc_hd__inv_2
*I *662:A I *D sky130_fd_sc_hd__inv_2
*I *663:A I *D sky130_fd_sc_hd__inv_2
*I *661:A I *D sky130_fd_sc_hd__inv_2
*I *665:A I *D sky130_fd_sc_hd__inv_2
*I *660:A I *D sky130_fd_sc_hd__inv_2
*I *667:A I *D sky130_fd_sc_hd__inv_2
*I *659:A I *D sky130_fd_sc_hd__inv_2
*I *664:A I *D sky130_fd_sc_hd__inv_2
*I *668:A I *D sky130_fd_sc_hd__inv_2
*I *658:X O *D sky130_fd_sc_hd__buf_4
*CAP
1 *666:A 0
2 *662:A 0.000148972
3 *663:A 0.000109727
4 *661:A 0.000534285
5 *665:A 0
6 *660:A 0
7 *667:A 9.53805e-05
8 *659:A 0
9 *664:A 0.000194212
10 *668:A 9.92992e-05
11 *658:X 0
12 *127:147 0.000402402
13 *127:132 0.00107066
14 *127:121 0.000729378
15 *127:102 0.000812794
16 *127:96 0.00127868
17 *127:92 0.00115596
18 *127:82 0.000669155
19 *127:45 0.00034492
20 *127:43 0.000730837
21 *127:30 0.000894498
22 *127:22 0.00124123
23 *127:6 0.00124657
24 *661:A *763:A 3.22879e-05
25 *661:A *164:8 6.30728e-05
26 *661:A *222:10 0.000228903
27 *662:A *143:92 0.000457969
28 *663:A *143:92 0.000277954
29 *664:A *783:A 6.88552e-05
30 *664:A *154:27 2.11827e-05
31 *667:A *755:A 0.000124003
32 *668:A *711:CLK 7.9566e-05
33 *127:22 *672:A 0.000132025
34 *127:22 *144:56 3.82956e-05
35 *127:22 *151:8 0.000564526
36 *127:22 *153:31 0.000342996
37 *127:22 *166:14 0.000177542
38 *127:22 *202:53 1.24376e-05
39 *127:30 *700:CLK 0.000114656
40 *127:30 *711:CLK 2.95526e-05
41 *127:30 *140:98 7.19537e-05
42 *127:43 *140:77 0
43 *127:43 *154:27 6.16923e-05
44 *127:43 *192:8 0.00029717
45 *127:45 *140:77 0
46 *127:45 *154:27 6.18295e-05
47 *127:82 *679:A1 2.43944e-05
48 *127:82 *129:20 0.00040441
49 *127:82 *151:8 5.24393e-05
50 *127:82 *166:14 1.86869e-05
51 *127:92 *129:10 0.000189118
52 *127:92 *139:26 2.72055e-05
53 *127:96 *129:10 0.000184527
54 *127:96 *147:23 0.000228909
55 *127:96 *161:29 5.40241e-05
56 *127:96 *161:45 0.000128106
57 *127:96 *219:24 0.00015686
58 *127:102 *621:B1 2.76611e-06
59 *127:102 *161:14 1.97329e-05
60 *127:102 *219:24 0.00010018
61 *127:121 *621:A1 4.39695e-05
62 *127:121 *669:A 0
63 *127:121 *155:18 0.000219882
64 *127:121 *156:20 1.83564e-05
65 *127:121 *219:12 1.01436e-05
66 *127:121 *219:24 0.000256538
67 *127:132 *161:14 3.04021e-05
68 *127:132 *161:45 0
69 *127:132 *222:10 0
70 *593:A1 *127:22 0.000124958
71 *3:13 *127:121 0
72 *30:10 *127:96 5.79559e-05
73 *39:10 *127:96 5.67058e-05
74 *43:8 *664:A 0.000169683
75 *44:8 *127:102 1.01436e-05
76 *44:8 *127:132 0.000215791
77 *48:8 *664:A 4.07715e-05
78 *48:8 *127:45 1.83564e-05
79 *50:8 *127:92 8.62876e-05
80 *54:8 *127:22 0.000113153
81 *61:8 *127:22 0.000115526
82 *72:10 *127:30 0.000118659
83 *81:69 *127:22 8.57577e-05
84 *82:101 *127:22 0
85 *86:10 *127:22 3.28795e-05
86 *89:10 *127:30 3.76854e-05
87 *92:10 *127:121 0.000171898
88 *98:10 *127:22 0.000315092
89 *98:10 *127:30 6.22448e-06
90 *103:10 *127:92 0.000168754
91 *119:16 *127:96 7.9759e-05
92 *119:16 *127:102 9.84851e-05
93 *119:16 *127:121 0.000390024
94 *119:29 *127:121 0
*RES
1 *658:X *127:6 38 
2 *127:6 *127:22 38.2829 
3 *127:22 *127:30 35.9864 
4 *127:30 *668:A 25.0714 
5 *127:30 *127:43 25.7093 
6 *127:43 *127:45 2.96214 
7 *127:45 *664:A 42.8886 
8 *127:45 *659:A 38 
9 *127:43 *667:A 40.0714 
10 *127:6 *127:82 21.7321 
11 *127:82 *127:92 36.7114 
12 *127:92 *127:96 31.82 
13 *127:96 *127:102 16.9471 
14 *127:102 *660:A 23 
15 *127:102 *127:121 45.4943 
16 *127:121 *665:A 23 
17 *127:96 *127:132 7.975 
18 *127:132 *661:A 48.0464 
19 *127:132 *127:147 17.61 
20 *127:147 *663:A 26.0036 
21 *127:147 *662:A 27.9093 
22 *127:82 *666:A 23 
*END

*D_NET *128 0.000609268
*CONN
*I *674:A I *D sky130_fd_sc_hd__clkbuf_4
*I *673:X O *D sky130_fd_sc_hd__and3_1
*CAP
1 *674:A 0
2 *673:X 0.000276824
3 *128:10 0.000276824
4 *128:10 *147:12 0
5 *126:18 *128:10 5.56203e-05
*RES
1 *673:X *128:10 42.0807 
2 *128:10 *674:A 38 
*END

*D_NET *129 0.0131412
*CONN
*I *685:S I *D sky130_fd_sc_hd__mux2_1
*I *677:S I *D sky130_fd_sc_hd__mux2_1
*I *681:S I *D sky130_fd_sc_hd__mux2_1
*I *689:S I *D sky130_fd_sc_hd__mux2_1
*I *683:S I *D sky130_fd_sc_hd__mux2_1
*I *675:S I *D sky130_fd_sc_hd__mux2_1
*I *679:S I *D sky130_fd_sc_hd__mux2_1
*I *687:S I *D sky130_fd_sc_hd__mux2_1
*I *674:X O *D sky130_fd_sc_hd__clkbuf_4
*CAP
1 *685:S 4.16037e-05
2 *677:S 2.30556e-05
3 *681:S 0.000285793
4 *689:S 0
5 *683:S 0.000241008
6 *675:S 5.29467e-05
7 *679:S 0
8 *687:S 0
9 *674:X 0.000377716
10 *129:86 0.000579097
11 *129:80 0.00118143
12 *129:59 0.00139156
13 *129:55 0.0010075
14 *129:40 0.000937217
15 *129:28 0.000619932
16 *129:20 0.00100851
17 *129:10 0.000970148
18 *675:S *675:A0 5.70419e-05
19 *675:S *739:A 0.000185428
20 *681:S *681:A0 9.08201e-05
21 *681:S *681:A1 0
22 *681:S *689:A0 9.75779e-05
23 *683:S *683:A0 9.84794e-05
24 *683:S *215:8 9.32862e-05
25 *685:S *685:A1 5.67058e-05
26 *685:S *208:62 1.72202e-05
27 *129:10 *166:14 0
28 *129:20 *676:A 0.000230386
29 *129:20 *679:A1 0.000926655
30 *129:28 *679:A0 0.000117455
31 *129:28 *687:A0 5.33272e-05
32 *129:28 *141:6 0.00049883
33 *129:40 *139:26 0
34 *129:40 *151:8 0
35 *129:40 *166:14 0
36 *129:55 *638:A2 0
37 *129:55 *728:A 0
38 *129:55 *732:A 6.95872e-05
39 *129:55 *139:26 0
40 *129:55 *151:8 0
41 *129:55 *169:10 2.79004e-05
42 *129:55 *208:62 7.88926e-05
43 *129:55 *210:14 0
44 *129:59 *640:A0 2.29192e-05
45 *129:59 *640:A1 0
46 *129:59 *732:A 0
47 *129:59 *210:10 0
48 *129:80 *640:A0 4.02103e-05
49 *129:80 *677:A0 7.72563e-05
50 *129:80 *733:A 2.93666e-05
51 *129:80 *134:10 0
52 *129:80 *212:29 5.40752e-05
53 *129:86 *677:A0 8.15864e-05
54 *129:86 *689:A0 4.86054e-05
55 *129:86 *131:10 0.00012033
56 *66:8 *129:10 0.000141888
57 *77:10 *129:80 9.84851e-05
58 *103:10 *129:10 0.000194327
59 *103:10 *129:40 3.70094e-05
60 *123:16 *129:55 0
61 *126:163 *129:59 0
62 *127:82 *129:20 0.00040441
63 *127:92 *129:10 0.000189118
64 *127:96 *129:10 0.000184527
*RES
1 *674:X *129:10 47.425 
2 *129:10 *129:20 28.6714 
3 *129:20 *129:28 44.5 
4 *129:28 *687:S 23 
5 *129:20 *679:S 23 
6 *129:10 *129:40 3.31429 
7 *129:40 *675:S 40.0507 
8 *129:40 *129:55 27.9879 
9 *129:55 *129:59 19.7229 
10 *129:59 *683:S 42.8264 
11 *129:59 *129:80 30.0386 
12 *129:80 *129:86 6.02786 
13 *129:86 *689:S 23 
14 *129:86 *681:S 29.4214 
15 *129:80 *677:S 23.4971 
16 *129:55 *685:S 24.0979 
*END

*D_NET *130 0.00101356
*CONN
*I *676:A I *D sky130_fd_sc_hd__clkbuf_1
*I *675:X O *D sky130_fd_sc_hd__mux2_1
*CAP
1 *676:A 0.000261901
2 *675:X 4.11681e-05
3 *130:8 0.00030307
4 *130:8 *144:92 8.85189e-05
5 *130:8 *151:8 8.85189e-05
6 *129:20 *676:A 0.000230386
*RES
1 *675:X *130:8 39.2014 
2 *130:8 *676:A 43.4271 
*END

*D_NET *131 0.000806058
*CONN
*I *678:A I *D sky130_fd_sc_hd__clkbuf_1
*I *677:X O *D sky130_fd_sc_hd__mux2_1
*CAP
1 *678:A 3.79767e-05
2 *677:X 0.00022573
3 *131:10 0.000263707
4 *678:A *141:70 9.84794e-05
5 *131:10 *741:A 4.66036e-05
6 *131:10 *137:8 0
7 *717:D *678:A 1.32314e-05
8 *129:86 *131:10 0.00012033
*RES
1 *677:X *131:10 41.8321 
2 *131:10 *678:A 39.0979 
*END

*D_NET *132 0.000463251
*CONN
*I *680:A I *D sky130_fd_sc_hd__clkbuf_1
*I *679:X O *D sky130_fd_sc_hd__mux2_1
*CAP
1 *680:A 0
2 *679:X 0.000231626
3 *132:10 0.000231626
4 *132:10 *679:A0 0
*RES
1 *679:X *132:10 41.48 
2 *132:10 *680:A 38 
*END

*D_NET *133 0.00042125
*CONN
*I *682:A I *D sky130_fd_sc_hd__clkbuf_1
*I *681:X O *D sky130_fd_sc_hd__mux2_1
*CAP
1 *682:A 0
2 *681:X 0.000111323
3 *133:10 0.000111323
4 *133:10 *780:A 5.67058e-05
5 *133:10 *151:16 5.56203e-05
6 *18:13 *133:10 0
7 *76:10 *133:10 8.62783e-05
*RES
1 *681:X *133:10 40.5271 
2 *133:10 *682:A 38 
*END

*D_NET *134 0.000997082
*CONN
*I *684:A I *D sky130_fd_sc_hd__clkbuf_1
*I *683:X O *D sky130_fd_sc_hd__mux2_1
*CAP
1 *684:A 0
2 *683:X 0.000471036
3 *134:10 0.000471036
4 *134:10 *151:8 0
5 *134:10 *215:8 5.50106e-05
6 *77:10 *134:10 0
7 *129:80 *134:10 0
*RES
1 *683:X *134:10 44.6907 
2 *134:10 *684:A 38 
*END

*D_NET *135 0.00158937
*CONN
*I *686:A I *D sky130_fd_sc_hd__clkbuf_1
*I *685:X O *D sky130_fd_sc_hd__mux2_1
*CAP
1 *686:A 0
2 *685:X 0.000404283
3 *135:8 0.000404283
4 *135:8 *721:CLK 9.8203e-05
5 *135:8 *208:62 0.000354122
6 *135:8 *208:72 0.000135038
7 *135:8 *216:8 1.94812e-05
8 *721:D *135:8 0.000173962
*RES
1 *685:X *135:8 33.0464 
2 *135:8 *686:A 23 
*END

*D_NET *136 0.000237387
*CONN
*I *688:A I *D sky130_fd_sc_hd__clkbuf_1
*I *687:X O *D sky130_fd_sc_hd__mux2_1
*CAP
1 *688:A 0.000118694
2 *687:X 0.000118694
*RES
1 *687:X *688:A 48.4236 
*END

*D_NET *137 0.00123802
*CONN
*I *690:A I *D sky130_fd_sc_hd__clkbuf_1
*I *689:X O *D sky130_fd_sc_hd__mux2_1
*CAP
1 *690:A 0.00019198
2 *689:X 0.000427031
3 *137:8 0.00061901
4 *137:8 *638:A3 0
5 *137:8 *741:A 0
6 *80:8 *137:8 0
7 *131:10 *137:8 0
*RES
1 *689:X *137:8 45.8921 
2 *137:8 *690:A 41.48 
*END

*D_NET *138 0.000675806
*CONN
*I *698:D I *D sky130_fd_sc_hd__dfstp_1
*I *642:X O *D sky130_fd_sc_hd__a311o_1
*CAP
1 *698:D 0
2 *642:X 0.000272929
3 *138:10 0.000272929
4 *138:10 *139:26 0
5 *138:10 *147:23 5.26101e-05
6 *642:A3 *138:10 7.73389e-05
*RES
1 *642:X *138:10 42.3086 
2 *138:10 *698:D 38 
*END

*D_NET *139 0.0102025
*CONN
*I *728:A I *D sky130_fd_sc_hd__clkbuf_16
*I *726:A I *D sky130_fd_sc_hd__clkbuf_16
*I *727:A I *D sky130_fd_sc_hd__clkbuf_16
*I *725:A I *D sky130_fd_sc_hd__clkbuf_16
*I *724:X O *D sky130_fd_sc_hd__clkbuf_16
*CAP
1 *728:A 0.000313088
2 *726:A 0
3 *727:A 0.000137231
4 *725:A 0.000638618
5 *724:X 0
6 *139:38 0.00108125
7 *139:26 0.00201116
8 *139:10 0.00146563
9 *139:6 0.00130661
10 *725:A *154:27 0.000758842
11 *725:A *206:26 0.000367267
12 *727:A *165:10 0.00040183
13 *727:A *206:26 0.000127747
14 *139:10 *603:A 3.13192e-05
15 *139:10 *147:12 0
16 *139:10 *191:8 0
17 *139:10 *200:12 2.2385e-05
18 *139:10 *201:42 0.000162263
19 *139:10 *201:68 0.000202182
20 *139:10 *202:71 1.142e-05
21 *139:26 *147:12 0
22 *139:38 *141:6 3.22051e-05
23 *139:38 *141:12 1.48473e-05
24 *139:38 *141:38 4.80427e-05
25 *588:B *139:10 5.45461e-05
26 *615:A *727:A 5.00237e-05
27 *615:B *727:A 9.66668e-05
28 *41:10 *139:10 0.000113235
29 *50:8 *139:26 9.53602e-05
30 *64:10 *139:10 0.000187612
31 *81:10 *139:10 4.16051e-06
32 *85:49 *139:10 0.000163272
33 *87:12 *727:A 1.76213e-05
34 *90:20 *139:10 0
35 *91:27 *139:10 0
36 *94:23 *139:10 9.86386e-05
37 *102:10 *139:10 0.000160191
38 *103:10 *139:10 0
39 *103:10 *139:26 0
40 *124:8 *728:A 0
41 *124:8 *139:26 0
42 *127:92 *139:26 2.72055e-05
43 *129:40 *139:26 0
44 *129:55 *728:A 0
45 *129:55 *139:26 0
46 *138:10 *139:26 0
*RES
1 *724:X *139:6 38 
2 *139:6 *139:10 30.9914 
3 *139:10 *725:A 36.485 
4 *139:10 *727:A 27.9093 
5 *139:6 *139:26 11.5896 
6 *139:26 *139:38 35.0596 
7 *139:38 *726:A 23 
8 *139:26 *728:A 43.5825 
*END

*D_NET *140 0.0121158
*CONN
*I *700:CLK I *D sky130_fd_sc_hd__dfrtp_1
*I *713:CLK I *D sky130_fd_sc_hd__dfrtp_1
*I *711:CLK I *D sky130_fd_sc_hd__dfrtp_1
*I *715:CLK I *D sky130_fd_sc_hd__dfrtp_1
*I *701:CLK I *D sky130_fd_sc_hd__dfrtp_4
*I *702:CLK I *D sky130_fd_sc_hd__dfrtp_4
*I *692:CLK I *D sky130_fd_sc_hd__dfrtp_2
*I *710:CLK I *D sky130_fd_sc_hd__dfrtp_1
*I *707:CLK I *D sky130_fd_sc_hd__dfrtp_1
*I *725:X O *D sky130_fd_sc_hd__clkbuf_16
*CAP
1 *700:CLK 0.00031113
2 *713:CLK 0
3 *711:CLK 0.00065572
4 *715:CLK 0.000236657
5 *701:CLK 0.000451166
6 *702:CLK 0
7 *692:CLK 0
8 *710:CLK 0
9 *707:CLK 4.01155e-05
10 *725:X 0.000219534
11 *140:111 0.000315942
12 *140:98 0.00103837
13 *140:96 0.000572886
14 *140:77 0.000979514
15 *140:63 0.000178932
16 *140:53 0.000839972
17 *140:46 0.000563658
18 *140:40 0.00129636
19 *140:31 0.000235262
20 *140:14 0.00073139
21 *140:12 0.000850782
22 *140:10 0.000219534
23 *700:CLK *201:99 0.000157011
24 *715:CLK *153:31 4.77086e-05
25 *140:10 *148:12 4.08641e-05
26 *140:10 *153:12 0.000149469
27 *140:10 *154:27 0
28 *140:14 *167:20 0.00019414
29 *140:40 *167:20 3.73371e-05
30 *140:53 *692:D 3.5694e-05
31 *140:63 *202:21 0.000167113
32 *140:77 *192:8 8.10914e-05
33 *140:111 *753:A 0
34 *140:111 *778:A 0
35 *585:A4 *700:CLK 9.77405e-05
36 *585:B1 *700:CLK 1.84831e-05
37 *668:A *711:CLK 7.9566e-05
38 *692:RESET_B *701:CLK 2.56078e-05
39 *707:RESET_B *140:40 0.000346207
40 *710:D *140:31 6.17437e-06
41 *711:RESET_B *711:CLK 0.000121797
42 *715:RESET_B *715:CLK 1.23407e-05
43 *759:A *140:40 1.94693e-05
44 *43:8 *140:46 2.04774e-05
45 *48:8 *140:46 9.63918e-05
46 *56:16 *140:96 0.000160915
47 *56:16 *140:111 3.84402e-05
48 *70:10 *140:111 3.81391e-05
49 *81:69 *700:CLK 6.8137e-05
50 *88:10 *140:63 0.000102389
51 *127:30 *700:CLK 0.000114656
52 *127:30 *711:CLK 2.95526e-05
53 *127:30 *140:98 7.19537e-05
54 *127:43 *140:77 0
55 *127:45 *140:77 0
*RES
1 *725:X *140:10 42.64 
2 *140:10 *140:12 15 
3 *140:12 *140:14 6.815 
4 *140:14 *707:CLK 23.8493 
5 *140:14 *140:31 33.625 
6 *140:31 *710:CLK 23 
7 *140:12 *140:40 20.8621 
8 *140:40 *140:46 21.67 
9 *140:46 *692:CLK 23 
10 *140:46 *140:53 3.48 
11 *140:53 *140:63 34.205 
12 *140:63 *702:CLK 23 
13 *140:53 *701:CLK 29.815 
14 *140:40 *140:77 9.65286 
15 *140:77 *715:CLK 41.5214 
16 *140:77 *140:96 19.1636 
17 *140:96 *140:98 1.57429 
18 *140:98 *711:CLK 35.5321 
19 *140:98 *140:111 35.4271 
20 *140:111 *713:CLK 23 
21 *140:96 *700:CLK 29.815 
*END

*D_NET *141 0.0105284
*CONN
*I *718:CLK I *D sky130_fd_sc_hd__dfxtp_1
*I *720:CLK I *D sky130_fd_sc_hd__dfxtp_1
*I *723:CLK I *D sky130_fd_sc_hd__dfxtp_1
*I *719:CLK I *D sky130_fd_sc_hd__dfxtp_1
*I *722:CLK I *D sky130_fd_sc_hd__dfxtp_1
*I *717:CLK I *D sky130_fd_sc_hd__dfxtp_1
*I *721:CLK I *D sky130_fd_sc_hd__dfxtp_1
*I *716:CLK I *D sky130_fd_sc_hd__dfxtp_1
*I *709:CLK I *D sky130_fd_sc_hd__dfrtp_1
*I *726:X O *D sky130_fd_sc_hd__clkbuf_16
*CAP
1 *718:CLK 2.30556e-05
2 *720:CLK 0.000146337
3 *723:CLK 0
4 *719:CLK 4.24511e-05
5 *722:CLK 0.000466193
6 *717:CLK 0
7 *721:CLK 4.09996e-05
8 *716:CLK 0.000145459
9 *709:CLK 0.000733126
10 *726:X 0.000360272
11 *141:74 0.000637438
12 *141:70 0.000664397
13 *141:57 0.000716466
14 *141:55 0.000528768
15 *141:38 0.000714591
16 *141:14 0.000996055
17 *141:12 0.000704703
18 *141:6 0.000498539
19 *709:CLK *144:71 0
20 *709:CLK *144:92 0
21 *720:CLK *212:16 9.73106e-05
22 *720:CLK *218:6 5.37348e-06
23 *720:CLK *218:29 8.99253e-05
24 *721:CLK *208:72 4.96303e-05
25 *721:CLK *212:16 2.31209e-05
26 *141:14 *144:92 0
27 *141:38 *638:S1 0
28 *141:38 *151:8 0
29 *141:38 *208:72 0.000284259
30 *141:38 *212:16 7.55595e-05
31 *141:38 *217:35 9.60053e-06
32 *141:55 *741:A 0
33 *141:55 *208:72 6.78755e-06
34 *141:55 *212:16 0.000336148
35 *141:55 *217:35 0.000138226
36 *141:57 *218:6 0.000160623
37 *141:70 *218:6 0.000144503
38 *678:A *141:70 9.84794e-05
39 *716:D *716:CLK 0.000104407
40 *717:D *141:57 0.000126706
41 *717:D *141:70 4.19743e-05
42 *722:D *722:CLK 5.82853e-05
43 *723:D *141:70 1.64354e-05
44 *10:10 *141:74 0
45 *73:8 *709:CLK 5.11807e-05
46 *75:10 *716:CLK 0.000111218
47 *75:10 *141:14 8.36198e-05
48 *75:10 *141:38 8.80415e-05
49 *76:10 *141:74 0.000141879
50 *80:8 *722:CLK 5.61311e-05
51 *80:8 *141:74 1.80023e-05
52 *129:28 *141:6 0.00049883
53 *135:8 *721:CLK 9.8203e-05
54 *139:38 *141:6 3.22051e-05
55 *139:38 *141:12 1.48473e-05
56 *139:38 *141:38 4.80427e-05
*RES
1 *726:X *141:6 30.2914 
2 *141:6 *141:12 16.595 
3 *141:12 *141:14 2.25786 
4 *141:14 *709:CLK 49.2893 
5 *141:14 *716:CLK 41.48 
6 *141:12 *141:38 10.4504 
7 *141:38 *721:CLK 39.4189 
8 *141:38 *141:55 20.3961 
9 *141:55 *141:57 4.90929 
10 *141:57 *717:CLK 23 
11 *141:57 *141:70 11.2893 
12 *141:70 *141:74 17.61 
13 *141:74 *722:CLK 47.57 
14 *141:74 *719:CLK 38.6214 
15 *141:70 *723:CLK 23 
16 *141:55 *720:CLK 26.48 
17 *141:6 *718:CLK 23.4971 
*END

*D_NET *142 0.0102889
*CONN
*I *699:CLK I *D sky130_fd_sc_hd__dfrtp_1
*I *708:CLK I *D sky130_fd_sc_hd__dfrtp_1
*I *691:CLK I *D sky130_fd_sc_hd__dfstp_1
*I *712:CLK I *D sky130_fd_sc_hd__dfrtp_1
*I *693:CLK I *D sky130_fd_sc_hd__dfrtp_1
*I *694:CLK I *D sky130_fd_sc_hd__dfrtp_1
*I *727:X O *D sky130_fd_sc_hd__clkbuf_16
*CAP
1 *699:CLK 0
2 *708:CLK 0
3 *691:CLK 0.000232826
4 *712:CLK 0
5 *693:CLK 0
6 *694:CLK 0.000754961
7 *727:X 0.000146338
8 *142:70 0.00046461
9 *142:62 0.000803431
10 *142:43 0.000687004
11 *142:36 0.000552578
12 *142:32 0.000803547
13 *142:12 0.000932403
14 *142:8 0.000459393
15 *694:CLK *694:D 4.39278e-05
16 *694:CLK *159:28 3.76791e-05
17 *694:CLK *207:10 2.93845e-05
18 *142:12 *198:10 4.21174e-05
19 *142:12 *207:10 0.000247678
20 *142:36 *580:B 0.000205245
21 *142:36 *580:C 8.53325e-05
22 *142:36 *587:C 0.000233862
23 *142:36 *207:34 0.000138859
24 *142:36 *207:49 5.3304e-05
25 *142:62 *174:10 0.000217913
26 *142:62 *198:10 1.06805e-05
27 *142:70 *156:20 5.70419e-05
28 *610:B1 *142:36 5.56279e-05
29 *611:A2 *142:36 1.56542e-05
30 *617:A2 *694:CLK 1.54424e-05
31 *655:A *142:70 0.00040655
32 *691:SET_B *142:62 0.000368653
33 *694:RESET_B *694:CLK 4.87251e-05
34 *712:D *142:36 3.26241e-05
35 *24:6 *142:36 0.000404636
36 *35:10 *142:12 6.25829e-05
37 *82:14 *142:70 0.000139647
38 *82:83 *142:70 4.92689e-05
39 *85:10 *142:36 7.9566e-05
40 *92:10 *142:62 0.000358854
41 *96:10 *691:CLK 0.000171904
42 *104:6 *142:70 0.000162788
43 *120:8 *142:12 7.84598e-05
44 *120:8 *142:32 0.000137473
45 *120:8 *142:43 7.92051e-05
46 *120:8 *142:62 7.63295e-05
47 *126:30 *142:12 5.78389e-05
48 *126:30 *142:32 0.000138638
49 *126:30 *142:43 8.27077e-05
50 *126:30 *142:62 2.56377e-05
51 *126:30 *142:70 0
*RES
1 *727:X *142:8 39.5743 
2 *142:8 *142:12 20.075 
3 *142:12 *694:CLK 34.5171 
4 *142:12 *693:CLK 23 
5 *142:8 *142:32 4.01857 
6 *142:32 *142:36 29.4379 
7 *142:36 *712:CLK 23 
8 *142:32 *142:43 2.61 
9 *142:43 *691:CLK 43.075 
10 *142:43 *142:62 24.7357 
11 *142:62 *142:70 41.8071 
12 *142:70 *708:CLK 23 
13 *142:62 *699:CLK 23 
*END

*D_NET *143 0.012285
*CONN
*I *705:CLK I *D sky130_fd_sc_hd__dfrtp_1
*I *704:CLK I *D sky130_fd_sc_hd__dfrtp_4
*I *714:CLK I *D sky130_fd_sc_hd__dfrtp_1
*I *695:CLK I *D sky130_fd_sc_hd__dfrtp_4
*I *696:CLK I *D sky130_fd_sc_hd__dfrtp_4
*I *697:CLK I *D sky130_fd_sc_hd__dfrtp_1
*I *706:CLK I *D sky130_fd_sc_hd__dfrtp_1
*I *703:CLK I *D sky130_fd_sc_hd__dfstp_1
*I *698:CLK I *D sky130_fd_sc_hd__dfstp_1
*I *728:X O *D sky130_fd_sc_hd__clkbuf_16
*CAP
1 *705:CLK 0
2 *704:CLK 0.000684055
3 *714:CLK 0.000460365
4 *695:CLK 0.000200942
5 *696:CLK 0
6 *697:CLK 0.000230116
7 *706:CLK 1.80182e-05
8 *703:CLK 0.000124671
9 *698:CLK 0.000398977
10 *728:X 0
11 *143:94 0.00114442
12 *143:92 0.000634308
13 *143:68 0.000602479
14 *143:49 0.000841848
15 *143:45 0.000737094
16 *143:14 0.000671949
17 *143:10 0.000308376
18 *143:8 0.000791745
19 *143:4 0.000757098
20 *695:CLK *745:A 5.86165e-05
21 *695:CLK *197:16 3.91386e-05
22 *697:CLK *209:87 9.41435e-05
23 *698:CLK *679:A1 7.53384e-06
24 *698:CLK *188:26 0.000381075
25 *703:CLK *188:26 0.000289861
26 *706:CLK *161:45 2.93845e-05
27 *714:CLK *763:A 0.000243587
28 *714:CLK *219:12 0.000141869
29 *714:CLK *222:10 0
30 *143:10 *198:10 1.57562e-05
31 *143:14 *161:45 0
32 *143:14 *198:10 7.55729e-05
33 *143:45 *745:A 5.24779e-05
34 *143:45 *198:10 0.000131926
35 *143:45 *208:44 8.16253e-05
36 *143:45 *209:27 3.95159e-06
37 *143:45 *209:46 0
38 *662:A *143:92 0.000457969
39 *663:A *143:92 0.000277954
40 *696:RESET_B *143:49 1.14154e-05
41 *696:RESET_B *143:68 0.000384839
42 *705:RESET_B *143:92 0.00015072
43 *706:D *706:CLK 5.50106e-05
44 *26:10 *714:CLK 0.000111312
45 *27:8 *143:10 0.000111041
46 *27:8 *143:45 3.53698e-05
47 *47:8 *143:10 0
48 *47:8 *143:14 0
49 *59:8 *695:CLK 8.15327e-05
50 *59:8 *143:45 6.93553e-05
51 *113:26 *143:45 2.31209e-05
52 *116:14 *143:68 8.94487e-05
53 *118:16 *143:68 8.50457e-05
54 *119:29 *714:CLK 0
55 *125:8 *143:45 8.78864e-05
*RES
1 *728:X *143:4 23 
2 *143:4 *143:8 16.5743 
3 *143:8 *143:10 3.66643 
4 *143:10 *143:14 17.9621 
5 *143:14 *698:CLK 32.3836 
6 *143:14 *703:CLK 26.48 
7 *143:10 *706:CLK 38.6214 
8 *143:8 *143:45 10.3571 
9 *143:45 *143:49 15.4971 
10 *143:49 *697:CLK 26.9771 
11 *143:49 *143:68 39.4664 
12 *143:68 *696:CLK 23 
13 *143:45 *695:CLK 42.6814 
14 *143:4 *143:92 13.5264 
15 *143:92 *143:94 15 
16 *143:94 *714:CLK 48.1707 
17 *143:94 *704:CLK 49.1029 
18 *143:92 *705:CLK 23 
*END

*D_NET *144 0.0170469
*CONN
*I *671:A I *D sky130_fd_sc_hd__inv_2
*I *646:A I *D sky130_fd_sc_hd__inv_2
*I *647:A I *D sky130_fd_sc_hd__buf_4
*I *658:A I *D sky130_fd_sc_hd__buf_4
*I *670:A I *D sky130_fd_sc_hd__inv_2
*I *672:A I *D sky130_fd_sc_hd__inv_2
*I *669:A I *D sky130_fd_sc_hd__inv_2
*I *765:X O *D sky130_fd_sc_hd__clkbuf_4
*CAP
1 *671:A 5.71428e-05
2 *646:A 0
3 *647:A 0
4 *658:A 0
5 *670:A 0.000177113
6 *672:A 0.000251305
7 *669:A 0.000317791
8 *765:X 0.000528621
9 *144:92 0.00091165
10 *144:71 0.00121541
11 *144:56 0.00061105
12 *144:39 0.00101997
13 *144:35 0.00148715
14 *144:18 0.00152687
15 *144:12 0.00114478
16 *144:10 0.00125585
17 *669:A *146:21 0
18 *671:A *188:26 5.3304e-05
19 *144:10 *146:21 0
20 *144:12 *146:21 0
21 *144:12 *157:10 0
22 *144:12 *158:10 0.000193024
23 *144:18 *146:21 0
24 *144:35 *155:18 0.00035518
25 *144:35 *162:10 9.94766e-05
26 *144:39 *754:A 1.76557e-05
27 *144:56 *151:8 0.000141879
28 *144:71 *151:8 0.000457416
29 *144:92 *744:A 1.59094e-05
30 *144:92 *151:8 0.000400401
31 *144:92 *211:25 0.000298533
32 *589:A0 *144:18 2.61802e-05
33 *592:A3 *672:A 0
34 *593:B1 *672:A 0.000272652
35 *639:B *144:92 0.000335527
36 *709:CLK *144:71 0
37 *709:CLK *144:92 0
38 *713:RESET_B *144:39 0.000139357
39 *761:A *144:35 0.000187129
40 *26:10 *144:12 0
41 *49:10 *669:A 3.7122e-06
42 *55:8 *144:18 0.000196549
43 *70:10 *672:A 5.67058e-05
44 *71:8 *144:18 0.000116228
45 *81:86 *672:A 9.77405e-05
46 *82:83 *144:35 0.000348123
47 *82:83 *144:39 0.000995824
48 *82:93 *672:A 0.000155658
49 *82:93 *144:39 0.000658443
50 *82:101 *672:A 5.79559e-05
51 *82:126 *672:A 7.26452e-05
52 *92:20 *669:A 6.6869e-05
53 *92:20 *144:18 7.80251e-05
54 *93:8 *669:A 1.01436e-05
55 *93:8 *144:18 0.000169683
56 *103:10 *144:39 2.30292e-05
57 *112:25 *144:18 0.000182397
58 *127:22 *672:A 0.000132025
59 *127:22 *144:56 3.82956e-05
60 *127:121 *669:A 0
61 *130:8 *144:92 8.85189e-05
62 *141:14 *144:92 0
*RES
1 *765:X *144:10 48.2225 
2 *144:10 *144:12 14.6346 
3 *144:12 *144:18 10.0671 
4 *144:18 *669:A 43.7586 
5 *144:18 *144:35 34.2021 
6 *144:35 *144:39 33.2493 
7 *144:39 *672:A 45.3329 
8 *144:39 *144:56 2.96214 
9 *144:56 *670:A 40.5479 
10 *144:56 *144:71 6.75286 
11 *144:71 *658:A 38 
12 *144:71 *144:92 33.4979 
13 *144:92 *647:A 23 
14 *144:35 *646:A 23 
15 *144:12 *671:A 39.1186 
*END

*D_NET *145 0.00172174
*CONN
*I *689:A1 I *D sky130_fd_sc_hd__mux2_1
*I *766:X O *D sky130_fd_sc_hd__clkbuf_1
*CAP
1 *689:A1 0.000215339
2 *766:X 0.000489599
3 *145:8 0.000704938
4 *689:A1 *741:A 0
5 *689:A1 *178:8 0
6 *689:A1 *180:8 0
7 *145:8 *151:16 0.00012003
8 *18:13 *689:A1 0
9 *18:13 *145:8 0.000177899
10 *76:10 *145:8 1.39317e-05
*RES
1 *766:X *145:8 47.6736 
2 *145:8 *689:A1 41.3143 
*END

*D_NET *146 0.00542734
*CONN
*I *775:A I *D sky130_fd_sc_hd__clkbuf_4
*I *758:A I *D sky130_fd_sc_hd__dlygate4sd3_1
*I *708:Q O *D sky130_fd_sc_hd__dfrtp_1
*CAP
1 *775:A 0
2 *758:A 0.000162701
3 *708:Q 8.31815e-05
4 *146:21 0.00173222
5 *146:10 0.0019781
6 *146:10 *156:20 2.97628e-05
7 *146:21 *622:B_N 0.00015954
8 *146:21 *756:A 9.95713e-05
9 *146:21 *152:21 0.000206711
10 *146:21 *155:10 0.000105062
11 *146:21 *188:8 8.51432e-05
12 *146:21 *221:8 0.000355906
13 rx_data[6] *146:21 6.54744e-05
14 *589:A0 *146:21 0
15 *669:A *146:21 0
16 *49:10 *146:21 0
17 *53:8 *758:A 0.000195316
18 *53:8 *146:21 0.000168644
19 *55:8 *146:21 0
20 *71:8 *146:21 0
21 *92:20 *146:21 0
22 *93:8 *146:21 0
23 *144:10 *146:21 0
24 *144:12 *146:21 0
25 *144:18 *146:21 0
*RES
1 *708:Q *146:10 39.4707 
2 *146:10 *758:A 40.61 
3 *146:10 *146:21 39.2329 
4 *146:21 *775:A 38 
*END

*D_NET *147 0.00547797
*CONN
*I *776:A I *D sky130_fd_sc_hd__clkbuf_4
*I *604:A1 I *D sky130_fd_sc_hd__mux2_1
*I *709:Q O *D sky130_fd_sc_hd__dfrtp_1
*CAP
1 *776:A 0
2 *604:A1 0
3 *709:Q 0
4 *147:23 0.00143061
5 *147:12 0.000631309
6 *147:4 0.00206192
7 *147:23 *642:A1 0
8 *147:23 *733:A 0
9 *147:23 *170:8 5.26204e-05
10 *147:23 *172:8 4.08641e-05
11 *147:23 *197:16 0
12 *147:23 *209:8 0
13 *147:23 *209:10 0
14 *147:23 *209:16 0
15 *147:23 *210:26 0.000218678
16 *147:23 *220:47 0
17 *38:10 *147:23 0
18 *59:8 *147:23 0
19 *82:83 *147:12 0.000268074
20 *102:10 *147:12 0
21 *124:8 *147:23 0.000206868
22 *126:16 *147:12 0
23 *126:16 *147:23 0.000285518
24 *126:18 *147:12 0
25 *126:163 *147:23 0
26 *127:96 *147:23 0.000228909
27 *128:10 *147:12 0
28 *138:10 *147:23 5.26101e-05
29 *139:10 *147:12 0
30 *139:26 *147:12 0
*RES
1 *709:Q *147:4 23 
2 *147:4 *147:12 40.5436 
3 *147:12 *604:A1 23 
4 *147:4 *147:23 44.435 
5 *147:23 *776:A 38 
*END

*D_NET *148 0.00279874
*CONN
*I *755:A I *D sky130_fd_sc_hd__dlygate4sd3_1
*I *777:A I *D sky130_fd_sc_hd__clkbuf_4
*I *710:Q O *D sky130_fd_sc_hd__dfrtp_1
*CAP
1 *755:A 0.000422364
2 *777:A 0
3 *710:Q 0
4 *148:12 0.000748712
5 *148:4 0.00117108
6 *148:12 *783:A 0.000120781
7 *148:12 *153:12 0
8 *148:12 *154:27 5.51118e-05
9 *148:12 *202:8 1.73399e-05
10 *667:A *755:A 0.000124003
11 *710:RESET_B *755:A 9.84851e-05
12 *140:10 *148:12 4.08641e-05
*RES
1 *710:Q *148:4 23 
2 *148:4 *148:12 44.4793 
3 *148:12 *777:A 23 
4 *148:4 *755:A 30.3329 
*END

*D_NET *149 0.00239931
*CONN
*I *753:A I *D sky130_fd_sc_hd__dlygate4sd3_1
*I *778:A I *D sky130_fd_sc_hd__clkbuf_4
*I *711:Q O *D sky130_fd_sc_hd__dfrtp_1
*CAP
1 *753:A 0.000176128
2 *778:A 0.000555165
3 *711:Q 0
4 *149:6 0.000731293
5 *753:A *598:A1 5.50106e-05
6 *778:A *153:31 9.41704e-05
7 *598:S *753:A 0.000314157
8 *68:10 *778:A 0.000192342
9 *82:126 *753:A 0.000145611
10 *82:138 *753:A 3.14377e-05
11 *82:138 *778:A 0.000103993
12 *140:111 *753:A 0
13 *140:111 *778:A 0
*RES
1 *711:Q *149:6 38 
2 *149:6 *778:A 48.8957 
3 *149:6 *753:A 43.3857 
*END

*D_NET *150 0.00188781
*CONN
*I *752:A I *D sky130_fd_sc_hd__dlygate4sd3_1
*I *779:A I *D sky130_fd_sc_hd__clkbuf_4
*I *712:Q O *D sky130_fd_sc_hd__dfrtp_1
*CAP
1 *752:A 7.60296e-05
2 *779:A 0.000412636
3 *712:Q 0.000194012
4 *150:10 0.000682678
5 *779:A *155:10 0.00041442
6 *150:10 *155:10 7.84832e-05
7 *712:RESET_B *150:10 2.95526e-05
*RES
1 *712:Q *150:10 41.3557 
2 *150:10 *779:A 48.7093 
3 *150:10 *752:A 39.0979 
*END

*D_NET *151 0.00899294
*CONN
*I *754:A I *D sky130_fd_sc_hd__dlygate4sd3_1
*I *780:A I *D sky130_fd_sc_hd__clkbuf_4
*I *713:Q O *D sky130_fd_sc_hd__dfrtp_1
*CAP
1 *754:A 0.000147333
2 *780:A 0.00015766
3 *713:Q 0
4 *151:16 0.00116771
5 *151:8 0.00216846
6 *151:4 0.00130575
7 *780:A *681:A1 3.91386e-05
8 *151:8 *638:A2 0.000184107
9 *151:8 *638:S1 0.000206281
10 *151:8 *640:S0 9.85378e-05
11 *151:8 *166:14 0
12 *151:8 *208:62 0.000117244
13 *151:8 *209:112 9.03784e-05
14 *151:8 *211:25 0.000103019
15 *151:8 *213:10 0.000165384
16 *151:8 *218:14 0
17 *151:8 *218:29 3.99937e-05
18 *151:16 *741:A 0.000185428
19 *151:16 *196:8 8.85189e-05
20 *151:16 *218:14 4.94034e-05
21 *713:RESET_B *754:A 9.17234e-05
22 *16:13 *151:16 9.8203e-05
23 *18:13 *151:16 0.000272383
24 *77:10 *151:8 0.000171906
25 *123:16 *151:8 8.91915e-05
26 *127:22 *151:8 0.000564526
27 *127:82 *151:8 5.24393e-05
28 *129:40 *151:8 0
29 *129:55 *151:8 0
30 *130:8 *151:8 8.85189e-05
31 *133:10 *780:A 5.67058e-05
32 *133:10 *151:16 5.56203e-05
33 *134:10 *151:8 0
34 *141:38 *151:8 0
35 *144:39 *754:A 1.76557e-05
36 *144:56 *151:8 0.000141879
37 *144:71 *151:8 0.000457416
38 *144:92 *151:8 0.000400401
39 *145:8 *151:16 0.00012003
*RES
1 *713:Q *151:4 23 
2 *151:4 *151:8 47.5421 
3 *151:8 *151:16 48.85 
4 *151:16 *780:A 41.0243 
5 *151:4 *754:A 25.4236 
*END

*D_NET *152 0.00276455
*CONN
*I *781:A I *D sky130_fd_sc_hd__clkbuf_4
*I *756:A I *D sky130_fd_sc_hd__dlygate4sd3_1
*I *714:Q O *D sky130_fd_sc_hd__dfrtp_1
*CAP
1 *781:A 0
2 *756:A 0.000141145
3 *714:Q 5.45426e-05
4 *152:21 0.000755634
5 *152:8 0.000951322
6 *152:21 *622:B_N 8.51432e-05
7 *152:21 *188:8 0.000169683
8 *152:21 *221:8 0.000173222
9 rx_data[6] *152:21 0.00012758
10 *17:15 *152:21 0
11 *146:21 *756:A 9.95713e-05
12 *146:21 *152:21 0.000206711
*RES
1 *714:Q *152:8 38.6214 
2 *152:8 *756:A 41.6664 
3 *152:8 *152:21 34.1607 
4 *152:21 *781:A 23 
*END

*D_NET *153 0.0054865
*CONN
*I *746:A I *D sky130_fd_sc_hd__dlygate4sd3_1
*I *782:A I *D sky130_fd_sc_hd__clkbuf_4
*I *715:Q O *D sky130_fd_sc_hd__dfrtp_1
*CAP
1 *746:A 0
2 *782:A 0
3 *715:Q 0
4 *153:31 0.000927507
5 *153:12 0.00127814
6 *153:6 0.00220565
7 *153:12 *783:A 0
8 *715:CLK *153:31 4.77086e-05
9 *715:RESET_B *153:31 0.000179229
10 *778:A *153:31 9.41704e-05
11 *67:8 *153:12 0
12 *82:138 *153:12 8.78864e-05
13 *82:138 *153:31 0.000144159
14 *86:10 *153:31 6.17437e-06
15 *101:8 *153:12 2.34077e-05
16 *127:22 *153:31 0.000342996
17 *140:10 *153:12 0.000149469
18 *148:12 *153:12 0
*RES
1 *715:Q *153:6 38 
2 *153:6 *153:12 39.5464 
3 *153:12 *782:A 23 
4 *153:6 *153:31 31.1986 
5 *153:31 *746:A 23 
*END

*D_NET *154 0.00475764
*CONN
*I *764:A I *D sky130_fd_sc_hd__dlygate4sd3_1
*I *783:A I *D sky130_fd_sc_hd__clkbuf_4
*I *707:Q O *D sky130_fd_sc_hd__dfrtp_1
*CAP
1 *764:A 0
2 *783:A 0.000522731
3 *707:Q 0
4 *154:27 0.00100878
5 *154:6 0.00153151
6 *154:27 *167:10 4.66917e-05
7 *154:27 *206:26 0.000102971
8 *664:A *783:A 6.88552e-05
9 *664:A *154:27 2.11827e-05
10 *725:A *154:27 0.000758842
11 *730:A *154:27 0.000396671
12 *43:8 *783:A 0
13 *127:43 *154:27 6.16923e-05
14 *127:45 *154:27 6.18295e-05
15 *140:10 *154:27 0
16 *148:12 *783:A 0.000120781
17 *148:12 *154:27 5.51118e-05
18 *153:12 *783:A 0
*RES
1 *707:Q *154:6 38 
2 *154:6 *783:A 49.2479 
3 *154:6 *154:27 37.5164 
4 *154:27 *764:A 23 
*END

*D_NET *155 0.00872192
*CONN
*I *631:A I *D sky130_fd_sc_hd__inv_2
*I *673:B I *D sky130_fd_sc_hd__and3_1
*I *767:X O *D sky130_fd_sc_hd__buf_1
*CAP
1 *631:A 7.98894e-05
2 *673:B 0.000985155
3 *767:X 0
4 *155:18 0.0019295
5 *155:10 0.00188724
6 *155:6 0.00102278
7 *673:B *621:A1 0.000231834
8 *673:B *621:B1 4.99436e-05
9 *673:B *737:A 6.17973e-05
10 *673:B *174:10 9.67842e-05
11 *155:18 *621:A1 0.000222104
12 rx_data[4] *155:10 1.27424e-05
13 tx_done *155:10 0.000184627
14 *590:A *155:18 8.1796e-05
15 *621:A2 *631:A 3.84128e-05
16 *673:C *673:B 1.14762e-05
17 *779:A *155:10 0.00041442
18 *53:8 *155:10 0.000595773
19 *112:25 *673:B 2.03764e-06
20 *119:29 *631:A 5.50049e-05
21 *127:121 *155:18 0.000219882
22 *144:35 *155:18 0.00035518
23 *146:21 *155:10 0.000105062
24 *150:10 *155:10 7.84832e-05
*RES
1 *767:X *155:6 38 
2 *155:6 *155:10 41.5557 
3 *155:10 *155:18 44.065 
4 *155:18 *673:B 37.7693 
5 *155:18 *631:A 24.8229 
*END

*D_NET *156 0.00346104
*CONN
*I *621:A1 I *D sky130_fd_sc_hd__a21o_1
*I *784:A I *D sky130_fd_sc_hd__buf_2
*I *699:Q O *D sky130_fd_sc_hd__dfrtp_1
*CAP
1 *621:A1 0.000281658
2 *784:A 0
3 *699:Q 7.95916e-05
4 *156:20 0.000835985
5 *156:8 0.00119723
6 *621:A2 *621:A1 0.000223841
7 *673:B *621:A1 0.000231834
8 *708:D *156:20 1.10317e-05
9 *708:RESET_B *156:20 4.90004e-05
10 *3:13 *156:20 0
11 *40:8 *156:20 0
12 *60:8 *621:A1 0
13 *65:8 *156:20 0
14 *92:10 *156:8 3.71369e-05
15 *104:6 *156:20 0.000142492
16 *105:10 *156:20 0
17 *127:121 *621:A1 4.39695e-05
18 *127:121 *156:20 1.83564e-05
19 *142:70 *156:20 5.70419e-05
20 *146:10 *156:20 2.97628e-05
21 *155:18 *621:A1 0.000222104
*RES
1 *699:Q *156:8 39.0979 
2 *156:8 *156:20 30.5564 
3 *156:20 *784:A 23 
4 *156:8 *621:A1 45.7471 
*END

*D_NET *157 0.000859028
*CONN
*I *634:B1 I *D sky130_fd_sc_hd__a21o_1
*I *729:X O *D sky130_fd_sc_hd__dlygate4sd3_1
*CAP
1 *634:B1 7.75327e-05
2 *729:X 0.000275772
3 *157:10 0.000353305
4 *634:B1 *622:A 5.47808e-05
5 *157:10 *158:10 9.11847e-06
6 *31:8 *157:10 8.85189e-05
7 *114:29 *157:10 0
8 *144:12 *157:10 0
*RES
1 *729:X *157:10 42.4329 
2 *157:10 *634:B1 39.5743 
*END

*D_NET *158 0.000657418
*CONN
*I *704:D I *D sky130_fd_sc_hd__dfrtp_4
*I *740:X O *D sky130_fd_sc_hd__dlygate4sd3_1
*CAP
1 *704:D 0
2 *740:X 0.000227637
3 *158:10 0.000227637
4 *144:12 *158:10 0.000193024
5 *157:10 *158:10 9.11847e-06
*RES
1 *740:X *158:10 42.1843 
2 *158:10 *704:D 38 
*END

*D_NET *159 0.00522602
*CONN
*I *633:B1 I *D sky130_fd_sc_hd__a21o_1
*I *751:X O *D sky130_fd_sc_hd__dlygate4sd3_1
*CAP
1 *633:B1 0
2 *751:X 0.00064401
3 *159:28 0.000860665
4 *159:8 0.00150468
5 *159:8 *636:A1 1.32939e-05
6 *159:8 *636:A2 0.000443679
7 *159:8 *206:26 6.15457e-06
8 *159:8 *207:14 4.39488e-05
9 *159:28 *617:B2 0.000263738
10 *159:28 *694:D 5.37348e-06
11 *159:28 *750:A 0.000224605
12 *159:28 *160:10 3.42479e-05
13 *159:28 *167:20 2.47321e-05
14 *159:28 *175:8 0.000110922
15 *159:28 *184:21 6.70895e-05
16 *159:28 *201:12 4.6318e-06
17 *159:28 *201:29 2.35393e-05
18 *159:28 *205:37 0.000521665
19 *617:A2 *159:28 7.44161e-06
20 *636:B1 *159:8 0.000249739
21 *694:CLK *159:28 3.76791e-05
22 *759:A *159:28 0.000107892
23 *88:22 *159:28 2.62931e-05
*RES
1 *751:X *159:8 48.15 
2 *159:8 *159:28 34.9479 
3 *159:28 *633:B1 23 
*END

*D_NET *160 0.000502304
*CONN
*I *692:D I *D sky130_fd_sc_hd__dfrtp_2
*I *759:X O *D sky130_fd_sc_hd__dlygate4sd3_1
*CAP
1 *692:D 4.57221e-05
2 *759:X 0.000151621
3 *160:10 0.000197343
4 *88:10 *160:10 3.76761e-05
5 *140:53 *692:D 3.5694e-05
6 *159:28 *160:10 3.42479e-05
*RES
1 *759:X *160:10 40.2993 
2 *160:10 *692:D 38.6888 
*END

*D_NET *161 0.00491999
*CONN
*I *632:B1 I *D sky130_fd_sc_hd__a21o_1
*I *642:C1 I *D sky130_fd_sc_hd__a311o_1
*I *621:B1 I *D sky130_fd_sc_hd__a21o_1
*I *760:X O *D sky130_fd_sc_hd__clkdlybuf4s25_1
*CAP
1 *632:B1 0
2 *642:C1 0
3 *621:B1 0.000210446
4 *760:X 0.000473012
5 *161:45 0.000581211
6 *161:29 0.000606643
7 *161:14 0.000334361
8 *161:12 0.000571496
9 *621:B1 *163:21 0
10 *161:12 *188:26 0.000812589
11 *161:12 *219:8 7.67422e-05
12 *161:29 *219:24 8.65377e-05
13 *161:45 *164:8 0.00044221
14 *161:45 *203:10 0
15 *161:45 *219:24 0.000235062
16 *673:B *621:B1 4.99436e-05
17 *706:CLK *161:45 2.93845e-05
18 *706:D *161:45 0.000102696
19 *30:10 *161:45 7.03766e-05
20 *47:8 *161:45 2.24366e-06
21 *119:16 *621:B1 0
22 *127:96 *161:29 5.40241e-05
23 *127:96 *161:45 0.000128106
24 *127:102 *621:B1 2.76611e-06
25 *127:102 *161:14 1.97329e-05
26 *127:132 *161:14 3.04021e-05
27 *127:132 *161:45 0
28 *143:14 *161:45 0
*RES
1 *760:X *161:12 48.3157 
2 *161:12 *161:14 2.25786 
3 *161:14 *621:B1 41.7079 
4 *161:14 *161:29 16.0979 
5 *161:29 *161:45 44.1271 
6 *161:45 *642:C1 23 
7 *161:29 *632:B1 23 
*END

*D_NET *162 0.000762642
*CONN
*I *699:D I *D sky130_fd_sc_hd__dfrtp_1
*I *761:X O *D sky130_fd_sc_hd__dlygate4sd3_1
*CAP
1 *699:D 5.09546e-05
2 *761:X 0.000220266
3 *162:10 0.000271221
4 *82:83 *162:10 8.85189e-05
5 *92:10 *699:D 3.22051e-05
6 *144:35 *162:10 9.94766e-05
*RES
1 *761:X *162:10 41.2521 
2 *162:10 *699:D 39.1186 
*END

*D_NET *163 0.00108853
*CONN
*I *620:A I *D sky130_fd_sc_hd__inv_2
*I *632:A1 I *D sky130_fd_sc_hd__a21o_1
*I *762:X O *D sky130_fd_sc_hd__dlygate4sd3_1
*CAP
1 *620:A 0
2 *632:A1 0.000184442
3 *762:X 0
4 *163:21 0.000140819
5 *163:4 0.000325261
6 *632:A1 *219:24 0.000270682
7 *621:A2 *163:21 0.000135039
8 *621:B1 *163:21 0
9 *112:6 *163:21 3.22879e-05
10 *119:16 *163:21 0
*RES
1 *762:X *163:4 23 
2 *163:4 *632:A1 26.0036 
3 *163:4 *163:21 33.1486 
4 *163:21 *620:A 23 
*END

*D_NET *164 0.00224845
*CONN
*I *642:B1 I *D sky130_fd_sc_hd__a311o_1
*I *763:X O *D sky130_fd_sc_hd__dlygate4sd3_1
*CAP
1 *642:B1 0
2 *763:X 0.000860068
3 *164:8 0.000860068
4 *164:8 *222:10 2.30292e-05
5 *661:A *164:8 6.30728e-05
6 *161:45 *164:8 0.00044221
*RES
1 *763:X *164:8 35.4286 
2 *164:8 *642:B1 23 
*END

*D_NET *165 0.00147735
*CONN
*I *611:B2 I *D sky130_fd_sc_hd__o22a_1
*I *764:X O *D sky130_fd_sc_hd__dlygate4sd3_1
*CAP
1 *611:B2 0
2 *764:X 0.000519919
3 *165:10 0.000519919
4 *165:10 *207:27 3.56796e-05
5 *727:A *165:10 0.00040183
*RES
1 *764:X *165:10 45.7679 
2 *165:10 *611:B2 38 
*END

*D_NET *166 0.00569705
*CONN
*I *675:A1 I *D sky130_fd_sc_hd__mux2_1
*I *768:X O *D sky130_fd_sc_hd__clkbuf_1
*CAP
1 *675:A1 0
2 *768:X 0.000230683
3 *166:14 0.0017508
4 *166:12 0.00198148
5 *166:14 *616:A1 0
6 *166:14 *184:21 4.73585e-05
7 *166:14 *191:8 0
8 *166:14 *202:12 0
9 *166:14 *205:21 0
10 *166:14 *205:59 7.49522e-05
11 *616:B1_N *166:14 0.000636198
12 *768:A *166:12 4.06849e-05
13 *33:10 *166:14 3.81391e-05
14 *54:8 *166:14 5.45887e-05
15 *61:8 *166:14 8.59579e-05
16 *66:8 *166:14 0
17 *85:70 *166:14 0.000285649
18 *85:97 *166:14 0
19 *103:10 *166:14 0
20 *107:10 *166:14 0.000157496
21 *111:10 *166:14 0.000116839
22 *127:22 *166:14 0.000177542
23 *127:82 *166:14 1.86869e-05
24 *129:10 *166:14 0
25 *129:40 *166:14 0
26 *151:8 *166:14 0
*RES
1 *768:X *166:12 41.0761 
2 *166:12 *166:14 37.0889 
3 *166:14 *675:A1 38 
*END

*D_NET *167 0.00324448
*CONN
*I *707:D I *D sky130_fd_sc_hd__dfrtp_1
*I *730:X O *D sky130_fd_sc_hd__dlygate4sd3_1
*CAP
1 *707:D 0
2 *730:X 0.000362022
3 *167:20 0.000680097
4 *167:10 0.00104212
5 *584:A2 *167:10 0.000105319
6 *707:RESET_B *167:20 0.000180003
7 *759:A *167:20 0.000272372
8 *63:10 *167:10 0.000163352
9 *88:22 *167:10 1.6891e-05
10 *88:22 *167:20 0.000119407
11 *140:14 *167:20 0.00019414
12 *140:40 *167:20 3.73371e-05
13 *154:27 *167:10 4.66917e-05
14 *159:28 *167:20 2.47321e-05
*RES
1 *730:X *167:10 44.6493 
2 *167:10 *167:20 30.1007 
3 *167:20 *707:D 23 
*END

*D_NET *168 0.00136097
*CONN
*I *609:A I *D sky130_fd_sc_hd__inv_2
*I *610:A2 I *D sky130_fd_sc_hd__o21a_1
*I *731:X O *D sky130_fd_sc_hd__dlygate4sd3_1
*CAP
1 *609:A 0
2 *610:A2 0
3 *731:X 0
4 *168:25 0.000246083
5 *168:12 0.000274961
6 *168:4 0.000521044
7 *168:25 *207:64 0.000101643
8 *82:18 *168:12 8.50457e-05
9 *85:10 *168:12 2.04854e-05
10 *85:10 *168:25 1.94812e-05
11 *96:10 *168:12 9.22287e-05
*RES
1 *731:X *168:4 23 
2 *168:4 *168:12 34.205 
3 *168:12 *610:A2 23 
4 *168:4 *168:25 34.8679 
5 *168:25 *609:A 23 
*END

*D_NET *169 0.000549162
*CONN
*I *685:A0 I *D sky130_fd_sc_hd__mux2_1
*I *732:X O *D sky130_fd_sc_hd__dlygate4sd3_1
*CAP
1 *685:A0 0
2 *732:X 0.000225373
3 *169:10 0.000225373
4 *169:10 *210:14 0
5 *123:16 *169:10 7.05156e-05
6 *129:55 *169:10 2.79004e-05
*RES
1 *732:X *169:10 41.7286 
2 *169:10 *685:A0 38 
*END

*D_NET *170 0.000821465
*CONN
*I *683:A0 I *D sky130_fd_sc_hd__mux2_1
*I *733:X O *D sky130_fd_sc_hd__dlygate4sd3_1
*CAP
1 *683:A0 6.86702e-05
2 *733:X 0.000117917
3 *170:8 0.000186587
4 *683:A0 *197:16 0.000184527
5 *170:8 *733:A 0
6 *683:S *683:A0 9.84794e-05
7 *126:163 *683:A0 9.67842e-05
8 *126:163 *170:8 1.58805e-05
9 *147:23 *170:8 5.26204e-05
*RES
1 *733:X *170:8 40.2579 
2 *170:8 *683:A0 40.5271 
*END

*D_NET *171 9.44624e-05
*CONN
*I *623:B2 I *D sky130_fd_sc_hd__a32o_1
*I *734:X O *D sky130_fd_sc_hd__dlygate4sd3_1
*CAP
1 *623:B2 2.27984e-05
2 *734:X 2.27984e-05
3 *623:B2 *685:A1 1.94812e-05
4 *623:B2 *208:62 2.93845e-05
*RES
1 *734:X *623:B2 46.6214 
*END

*D_NET *172 0.000415178
*CONN
*I *697:D I *D sky130_fd_sc_hd__dfrtp_1
*I *735:X O *D sky130_fd_sc_hd__dlygate4sd3_1
*CAP
1 *697:D 0.000103074
2 *735:X 6.55146e-05
3 *172:8 0.000168588
4 *697:D *209:87 3.71369e-05
5 *59:8 *172:8 0
6 *147:23 *172:8 4.08641e-05
*RES
1 *735:X *172:8 39.2014 
2 *172:8 *697:D 39.595 
*END

*D_NET *173 0.000438151
*CONN
*I *677:A0 I *D sky130_fd_sc_hd__mux2_1
*I *736:X O *D sky130_fd_sc_hd__dlygate4sd3_1
*CAP
1 *677:A0 9.88402e-05
2 *736:X 9.88402e-05
3 *677:A0 *677:A1 8.16279e-05
4 *129:80 *677:A0 7.72563e-05
5 *129:86 *677:A0 8.15864e-05
*RES
1 *736:X *677:A0 49.0036 
*END

*D_NET *174 0.00148534
*CONN
*I *635:A I *D sky130_fd_sc_hd__inv_2
*I *737:X O *D sky130_fd_sc_hd__dlygate4sd3_1
*CAP
1 *635:A 0
2 *737:X 0.000311488
3 *174:10 0.000311488
4 *174:10 *198:10 0.000304168
5 *673:B *174:10 9.67842e-05
6 *673:C *174:10 0.000161961
7 *691:SET_B *174:10 8.15327e-05
8 *142:62 *174:10 0.000217913
*RES
1 *737:X *174:10 47.3421 
2 *174:10 *635:A 38 
*END

*D_NET *175 0.000657329
*CONN
*I *694:D I *D sky130_fd_sc_hd__dfrtp_1
*I *738:X O *D sky130_fd_sc_hd__dlygate4sd3_1
*CAP
1 *694:D 5.15608e-05
2 *738:X 4.90023e-05
3 *175:8 0.000100563
4 *175:8 *201:29 0.000113153
5 *617:A2 *694:D 0.000182826
6 *694:CLK *694:D 4.39278e-05
7 *159:28 *694:D 5.37348e-06
8 *159:28 *175:8 0.000110922
*RES
1 *738:X *175:8 39.5536 
2 *175:8 *694:D 40.0507 
*END

*D_NET *176 0.000340548
*CONN
*I *675:A0 I *D sky130_fd_sc_hd__mux2_1
*I *739:X O *D sky130_fd_sc_hd__dlygate4sd3_1
*CAP
1 *675:A0 0.000115269
2 *739:X 0.000115269
3 *675:A0 *739:A 5.29672e-05
4 *675:S *675:A0 5.70419e-05
*RES
1 *739:X *675:A0 48.5271 
*END

*D_NET *177 0.000480967
*CONN
*I *677:A1 I *D sky130_fd_sc_hd__mux2_1
*I *769:X O *D sky130_fd_sc_hd__clkbuf_1
*CAP
1 *677:A1 0.00010063
2 *769:X 5.58952e-05
3 *177:8 0.000156526
4 *177:8 *741:A 0
5 *177:8 *218:14 8.62876e-05
6 *677:A0 *677:A1 8.16279e-05
*RES
1 *769:X *177:8 39.2014 
2 *177:8 *677:A1 39.5743 
*END

*D_NET *178 0.000551818
*CONN
*I *681:A0 I *D sky130_fd_sc_hd__mux2_1
*I *741:X O *D sky130_fd_sc_hd__dlygate4sd3_1
*CAP
1 *681:A0 0.000125761
2 *741:X 7.63852e-05
3 *178:8 0.000202146
4 *681:A0 *681:A1 5.67058e-05
5 *178:8 *196:8 0
6 *681:S *681:A0 9.08201e-05
7 *689:A1 *178:8 0
*RES
1 *741:X *178:8 39.2014 
2 *178:8 *681:A0 40.0507 
*END

*D_NET *179 0.000925807
*CONN
*I *687:A0 I *D sky130_fd_sc_hd__mux2_1
*I *742:X O *D sky130_fd_sc_hd__dlygate4sd3_1
*CAP
1 *687:A0 0.000217236
2 *742:X 0.000219004
3 *179:8 0.00043624
4 *129:28 *687:A0 5.33272e-05
*RES
1 *742:X *179:8 42.0186 
2 *179:8 *687:A0 41.0036 
*END

*D_NET *180 0.000680381
*CONN
*I *689:A0 I *D sky130_fd_sc_hd__mux2_1
*I *743:X O *D sky130_fd_sc_hd__dlygate4sd3_1
*CAP
1 *689:A0 0.000164491
2 *743:X 5.94633e-05
3 *180:8 0.000223955
4 *180:8 *741:A 8.62876e-05
5 *681:S *689:A0 9.75779e-05
6 *689:A1 *180:8 0
7 *129:86 *689:A0 4.86054e-05
*RES
1 *743:X *180:8 39.2014 
2 *180:8 *689:A0 40.5271 
*END

*D_NET *181 0.00159416
*CONN
*I *679:A0 I *D sky130_fd_sc_hd__mux2_1
*I *744:X O *D sky130_fd_sc_hd__dlygate4sd3_1
*CAP
1 *679:A0 0.000372906
2 *744:X 0.000365444
3 *181:8 0.00073835
4 *129:28 *679:A0 0.000117455
5 *132:10 *679:A0 0
*RES
1 *744:X *181:8 43.8621 
2 *181:8 *679:A0 45.54 
*END

*D_NET *182 0.00122806
*CONN
*I *627:B1 I *D sky130_fd_sc_hd__a21oi_1
*I *745:X O *D sky130_fd_sc_hd__dlygate4sd3_1
*CAP
1 *627:B1 0.000184427
2 *745:X 0.000154523
3 *182:8 0.00033895
4 *182:8 *748:A 0
5 *182:8 *208:10 0
6 *628:B1 *627:B1 1.94693e-05
7 *36:8 *182:8 0
8 *58:10 *627:B1 0.000156207
9 *115:20 *182:8 3.83778e-05
10 *115:39 *627:B1 3.91386e-05
11 *118:16 *182:8 0.00029697
*RES
1 *745:X *182:8 42.0186 
2 *182:8 *627:B1 41.0243 
*END

*D_NET *183 0.000437585
*CONN
*I *584:B1 I *D sky130_fd_sc_hd__o21a_1
*I *746:X O *D sky130_fd_sc_hd__dlygate4sd3_1
*CAP
1 *584:B1 7.18707e-05
2 *746:X 7.39192e-05
3 *183:8 0.00014579
4 *89:10 *183:8 8.78864e-05
5 *100:12 *584:B1 5.81185e-05
*RES
1 *746:X *183:8 39.2014 
2 *183:8 *584:B1 39.8229 
*END

*D_NET *184 0.00256766
*CONN
*I *617:A1 I *D sky130_fd_sc_hd__a22o_1
*I *613:A1 I *D sky130_fd_sc_hd__a22o_1
*I *747:X O *D sky130_fd_sc_hd__dlygate4sd3_1
*CAP
1 *617:A1 0
2 *613:A1 0.000256062
3 *747:X 0
4 *184:21 0.000278674
5 *184:4 0.000534736
6 *184:21 *617:B2 4.50413e-05
7 *184:21 *205:21 5.31444e-05
8 *184:21 *205:59 5.94125e-05
9 *613:A2 *613:A1 0.000467547
10 *613:B1 *613:A1 0.000241343
11 *617:B1 *184:21 5.50106e-05
12 *618:A1 *184:21 6.7177e-06
13 *618:S *613:A1 9.67842e-05
14 *87:16 *613:A1 0.000262864
15 *111:10 *613:A1 9.58714e-05
16 *159:28 *184:21 6.70895e-05
17 *166:14 *184:21 4.73585e-05
*RES
1 *747:X *184:4 23 
2 *184:4 *613:A1 31.1407 
3 *184:4 *184:21 35.4893 
4 *184:21 *617:A1 23 
*END

*D_NET *185 0.00100566
*CONN
*I *630:A1 I *D sky130_fd_sc_hd__a21oi_1
*I *748:X O *D sky130_fd_sc_hd__dlygate4sd3_1
*CAP
1 *630:A1 0
2 *748:X 0.00044605
3 *185:10 0.00044605
4 *185:10 *745:A 3.59884e-05
5 *630:A2 *185:10 3.76854e-05
6 *57:8 *185:10 3.98887e-05
*RES
1 *748:X *185:10 44.1107 
2 *185:10 *630:A1 38 
*END

*D_NET *186 0.000424483
*CONN
*I *695:D I *D sky130_fd_sc_hd__dfrtp_4
*I *749:X O *D sky130_fd_sc_hd__dlygate4sd3_1
*CAP
1 *695:D 3.76058e-05
2 *749:X 0.000106931
3 *186:12 0.000144536
4 *186:12 *745:A 0
5 *630:A2 *186:12 0.000135411
*RES
1 *749:X *186:12 40.6721 
2 *186:12 *695:D 38.6214 
*END

*D_NET *187 0.000504676
*CONN
*I *613:B2 I *D sky130_fd_sc_hd__a22o_1
*I *750:X O *D sky130_fd_sc_hd__dlygate4sd3_1
*CAP
1 *613:B2 7.45799e-05
2 *750:X 7.30943e-05
3 *187:8 0.000147674
4 *187:8 *202:34 0.000112294
5 *613:B1 *613:B2 9.70332e-05
*RES
1 *750:X *187:8 39.5536 
2 *187:8 *613:B2 39.595 
*END

*D_NET *188 0.00858458
*CONN
*I *679:A1 I *D sky130_fd_sc_hd__mux2_1
*I *770:X O *D sky130_fd_sc_hd__buf_1
*CAP
1 *679:A1 0.000998663
2 *770:X 5.88038e-05
3 *188:26 0.00270553
4 *188:8 0.00176567
5 *188:26 *760:A 0.00018282
6 *188:26 *203:10 1.69977e-05
7 *671:A *188:26 5.3304e-05
8 *698:CLK *679:A1 7.53384e-06
9 *698:CLK *188:26 0.000381075
10 *703:CLK *188:26 0.000289861
11 *26:10 *188:26 0.000105861
12 *127:82 *679:A1 2.43944e-05
13 *129:20 *679:A1 0.000926655
14 *146:21 *188:8 8.51432e-05
15 *152:21 *188:8 0.000169683
16 *161:12 *188:26 0.000812589
*RES
1 *770:X *188:8 40.2579 
2 *188:8 *188:26 49.365 
3 *188:26 *679:A1 41.27 
*END

*D_NET *189 0.000410644
*CONN
*I *595:A1 I *D sky130_fd_sc_hd__mux2_1
*I *752:X O *D sky130_fd_sc_hd__dlygate4sd3_1
*CAP
1 *595:A1 0.000147361
2 *752:X 0.000147361
3 *595:A0 *595:A1 5.76359e-05
4 *96:18 *595:A1 5.82853e-05
*RES
1 *752:X *595:A1 49.48 
*END

*D_NET *190 0.000375799
*CONN
*I *598:A1 I *D sky130_fd_sc_hd__mux2_1
*I *753:X O *D sky130_fd_sc_hd__dlygate4sd3_1
*CAP
1 *598:A1 5.21422e-05
2 *753:X 5.21422e-05
3 *598:S *598:A1 2.32004e-05
4 *753:A *598:A1 5.50106e-05
5 *82:126 *598:A1 0.000187129
6 *82:138 *598:A1 6.17437e-06
*RES
1 *753:X *598:A1 48.0507 
*END

*D_NET *191 0.000782635
*CONN
*I *592:B1 I *D sky130_fd_sc_hd__o31a_1
*I *754:X O *D sky130_fd_sc_hd__dlygate4sd3_1
*CAP
1 *592:B1 3.97984e-05
2 *754:X 0.000118389
3 *191:8 0.000158188
4 *592:A2 *592:B1 0.000228909
5 *592:A3 *592:B1 0.000227208
6 *85:97 *191:8 1.01436e-05
7 *139:10 *191:8 0
8 *166:14 *191:8 0
*RES
1 *754:X *191:8 39.9057 
2 *191:8 *592:B1 40.5271 
*END

*D_NET *192 0.0013753
*CONN
*I *601:A1 I *D sky130_fd_sc_hd__mux2_1
*I *755:X O *D sky130_fd_sc_hd__dlygate4sd3_1
*CAP
1 *601:A1 0.000313247
2 *755:X 0.000129586
3 *192:8 0.000442833
4 *100:12 *601:A1 0.000111373
5 *127:43 *192:8 0.00029717
6 *140:77 *192:8 8.10914e-05
*RES
1 *755:X *192:8 42.0186 
2 *192:8 *601:A1 42.4329 
*END

*D_NET *193 0.000502334
*CONN
*I *589:A1 I *D sky130_fd_sc_hd__mux2_1
*I *756:X O *D sky130_fd_sc_hd__dlygate4sd3_1
*CAP
1 *589:A1 0.000207637
2 *756:X 0.000207637
3 *92:20 *589:A1 4.9662e-05
4 *112:25 *589:A1 2.98648e-05
5 *119:29 *589:A1 7.53384e-06
*RES
1 *756:X *589:A1 49.48 
*END

*D_NET *194 0.000530419
*CONN
*I *610:A1 I *D sky130_fd_sc_hd__o21a_1
*I *757:X O *D sky130_fd_sc_hd__dlygate4sd3_1
*CAP
1 *610:A1 0
2 *757:X 0.000208467
3 *194:14 0.000208467
4 *194:14 *207:64 8.32783e-05
5 *643:B *194:14 2.59257e-05
6 *82:18 *194:14 4.2812e-06
*RES
1 *757:X *194:14 41.2936 
2 *194:14 *610:A1 38 
*END

*D_NET *195 0.000466532
*CONN
*I *607:A0 I *D sky130_fd_sc_hd__mux2_1
*I *758:X O *D sky130_fd_sc_hd__dlygate4sd3_1
*CAP
1 *607:A0 0.000171751
2 *758:X 0.000171751
3 *82:46 *607:A0 5.58003e-05
4 *82:55 *607:A0 6.72291e-05
*RES
1 *758:X *607:A0 49.48 
*END

*D_NET *196 0.000475684
*CONN
*I *681:A1 I *D sky130_fd_sc_hd__mux2_1
*I *771:X O *D sky130_fd_sc_hd__clkbuf_1
*CAP
1 *681:A1 8.8668e-05
2 *771:X 5.69925e-05
3 *196:8 0.000145661
4 *681:A0 *681:A1 5.67058e-05
5 *681:S *681:A1 0
6 *780:A *681:A1 3.91386e-05
7 *151:16 *196:8 8.85189e-05
8 *178:8 *196:8 0
*RES
1 *771:X *196:8 39.2014 
2 *196:8 *681:A1 40.0714 
*END

*D_NET *197 0.00339602
*CONN
*I *683:A1 I *D sky130_fd_sc_hd__mux2_1
*I *772:X O *D sky130_fd_sc_hd__clkbuf_1
*CAP
1 *683:A1 0
2 *772:X 0.000646754
3 *197:16 0.000777317
4 *197:8 0.00142407
5 *197:16 *745:A 0
6 *630:A2 *197:8 1.94693e-05
7 *630:A2 *197:16 0
8 *683:A0 *197:16 0.000184527
9 *695:CLK *197:16 3.91386e-05
10 *19:9 *197:8 1.94812e-05
11 *38:10 *197:16 0.00014196
12 *57:8 *197:16 0
13 *118:16 *197:8 9.37883e-05
14 *126:163 *197:16 4.95081e-05
15 *147:23 *197:16 0
*RES
1 *772:X *197:8 46.7207 
2 *197:8 *197:16 30.1007 
3 *197:16 *683:A1 23 
*END

*D_NET *198 0.00936123
*CONN
*I *685:A1 I *D sky130_fd_sc_hd__mux2_1
*I *773:X O *D sky130_fd_sc_hd__buf_1
*CAP
1 *685:A1 0.000534194
2 *773:X 0.000227747
3 *198:10 0.00283598
4 *198:8 0.00252954
5 *685:A1 *208:62 0.000286694
6 *198:10 *642:A1 0.000326697
7 *198:10 *203:10 0
8 *198:10 *207:27 0.000189214
9 *198:10 *208:52 0.000133316
10 *198:10 *209:10 2.472e-05
11 *198:10 *219:24 3.81391e-05
12 *198:10 *220:47 2.84912e-05
13 *623:B2 *685:A1 1.94812e-05
14 *673:C *198:10 0
15 *685:S *685:A1 5.67058e-05
16 *773:A *198:8 1.94812e-05
17 *3:23 *198:10 2.43996e-05
18 *24:21 *198:10 7.4315e-05
19 *27:8 *198:10 0.000302592
20 *35:10 *198:10 9.39056e-05
21 *39:10 *198:10 9.28842e-05
22 *42:10 *198:10 0
23 *59:8 *198:10 1.01436e-05
24 *91:27 *198:10 0
25 *113:26 *685:A1 0.000104169
26 *120:8 *198:10 0.000787073
27 *125:8 *198:10 4.11274e-05
28 *126:16 *198:10 0
29 *126:18 *198:10 0
30 *126:26 *198:10 0
31 *126:30 *198:10 0
32 *126:38 *198:10 0
33 *142:12 *198:10 4.21174e-05
34 *142:62 *198:10 1.06805e-05
35 *143:10 *198:10 1.57562e-05
36 *143:14 *198:10 7.55729e-05
37 *143:45 *198:10 0.000131926
38 *174:10 *198:10 0.000304168
*RES
1 *773:X *198:8 41.0036 
2 *198:8 *198:10 50.8536 
3 *198:10 *685:A1 48.5436 
*END

*D_NET *199 0.000750057
*CONN
*I *687:A1 I *D sky130_fd_sc_hd__mux2_1
*I *774:X O *D sky130_fd_sc_hd__clkbuf_1
*CAP
1 *687:A1 0
2 *774:X 0.000375028
3 *199:10 0.000375028
*RES
1 *774:X *199:10 43.3857 
2 *199:10 *687:A1 38 
*END

*D_NET *200 0.000840398
*CONN
*I *576:A I *D sky130_fd_sc_hd__buf_2
*I *591:A I *D sky130_fd_sc_hd__inv_2
*I *700:Q O *D sky130_fd_sc_hd__dfrtp_1
*CAP
1 *576:A 6.09276e-05
2 *591:A 0
3 *700:Q 0
4 *200:12 0.000114218
5 *200:4 0.000175145
6 *200:12 *201:68 5.58003e-05
7 *579:C *576:A 1.92324e-05
8 *41:10 *200:12 8.57577e-05
9 *81:8 *576:A 6.17437e-06
10 *81:10 *200:12 0.000134776
11 *84:14 *200:12 9.79925e-05
12 *85:49 *576:A 5.5792e-05
13 *90:20 *200:12 1.21972e-05
14 *139:10 *200:12 2.2385e-05
*RES
1 *700:Q *200:4 23 
2 *200:4 *200:12 33.0036 
3 *200:12 *591:A 23 
4 *200:4 *576:A 24.4707 
*END

*D_NET *201 0.0127443
*CONN
*I *594:A I *D sky130_fd_sc_hd__or3_1
*I *579:B I *D sky130_fd_sc_hd__or3_1
*I *592:A1 I *D sky130_fd_sc_hd__o31a_1
*I *603:B I *D sky130_fd_sc_hd__or4_1
*I *585:A1 I *D sky130_fd_sc_hd__a41o_1
*I *586:A I *D sky130_fd_sc_hd__inv_2
*I *614:A I *D sky130_fd_sc_hd__nor2_1
*I *578:A1 I *D sky130_fd_sc_hd__o21ai_1
*I *582:A I *D sky130_fd_sc_hd__and2_1
*I *617:B2 I *D sky130_fd_sc_hd__a22o_1
*I *701:Q O *D sky130_fd_sc_hd__dfrtp_4
*CAP
1 *594:A 0
2 *579:B 0
3 *592:A1 0.000314902
4 *603:B 0
5 *585:A1 0
6 *586:A 0.000130397
7 *614:A 0
8 *578:A1 0.000126754
9 *582:A 3.12219e-05
10 *617:B2 8.28343e-05
11 *701:Q 0.000862198
12 *201:110 0.000362849
13 *201:99 0.000882095
14 *201:91 0.00134616
15 *201:89 0.000513184
16 *201:72 0.000307495
17 *201:68 0.000301511
18 *201:50 0.000249037
19 *201:42 0.000520636
20 *201:29 0.000627206
21 *201:12 0.00136415
22 *578:A1 *202:60 0.000140021
23 *578:A1 *202:71 0.000223427
24 *582:A *206:26 9.66668e-05
25 *586:A *579:A 5.90851e-05
26 *201:29 *636:A1 0
27 *201:29 *206:26 1.41891e-05
28 *201:42 *206:26 1.51481e-05
29 *201:50 *202:71 2.50118e-05
30 *201:72 *579:A 7.74223e-05
31 *201:110 *603:A 8.62876e-05
32 *582:B *201:42 4.19375e-05
33 *582:B *201:68 2.03073e-05
34 *592:A2 *592:A1 0.000440163
35 *592:A3 *592:A1 5.90675e-06
36 *593:A4 *592:A1 1.12265e-05
37 *594:B *201:68 0.000182222
38 *594:C *201:68 5.5792e-05
39 *606:B *586:A 0.00016671
40 *614:B *201:50 8.841e-06
41 *617:A2 *617:B2 5.50049e-05
42 *617:B1 *617:B2 5.50106e-05
43 *618:A1 *201:29 0
44 *656:A *201:68 9.66668e-05
45 *700:CLK *201:99 0.000157011
46 *701:D *201:12 2.93747e-05
47 *62:8 *201:12 8.62876e-05
48 *64:10 *201:29 1.13812e-05
49 *64:10 *201:42 1.79572e-05
50 *64:10 *201:50 4.67488e-05
51 *81:10 *201:68 1.16455e-05
52 *81:12 *201:68 5.59141e-05
53 *81:29 *201:50 9.8592e-06
54 *81:31 *201:50 1.61385e-05
55 *81:69 *201:99 9.98069e-06
56 *84:14 *201:68 5.34515e-05
57 *85:49 *586:A 0.000240155
58 *85:49 *201:91 0.000232276
59 *85:70 *578:A1 9.66585e-05
60 *87:12 *582:A 5.45644e-05
61 *87:12 *201:29 6.56823e-05
62 *90:20 *201:68 4.53082e-05
63 *91:10 *201:72 1.0092e-05
64 *91:27 *201:72 0.000150033
65 *91:27 *201:89 0.000139197
66 *94:23 *592:A1 3.91386e-05
67 *94:23 *201:110 8.62876e-05
68 *98:10 *201:99 8.93394e-05
69 *108:10 *201:50 0.00018221
70 *109:8 *201:29 0
71 *110:12 *201:12 0
72 *126:56 *201:12 0
73 *126:99 *201:89 3.75905e-05
74 *139:10 *201:42 0.000162263
75 *139:10 *201:68 0.000202182
76 *159:28 *617:B2 0.000263738
77 *159:28 *201:12 4.6318e-06
78 *159:28 *201:29 2.35393e-05
79 *175:8 *201:29 0.000113153
80 *184:21 *617:B2 4.50413e-05
81 *200:12 *201:68 5.58003e-05
*RES
1 *701:Q *201:12 49.9521 
2 *201:12 *617:B2 41.0243 
3 *201:12 *201:29 6.54571 
4 *201:29 *582:A 39.0979 
5 *201:29 *201:42 3.58357 
6 *201:42 *201:50 18.5214 
7 *201:50 *578:A1 26.9564 
8 *201:50 *614:A 23 
9 *201:42 *201:68 21.4421 
10 *201:68 *201:72 17.2579 
11 *201:72 *586:A 41.9979 
12 *201:72 *201:89 16.9057 
13 *201:89 *201:91 5.38571 
14 *201:91 *201:99 41.3514 
15 *201:99 *585:A1 23 
16 *201:91 *201:110 31.2014 
17 *201:110 *603:B 23 
18 *201:110 *592:A1 29.7321 
19 *201:89 *579:B 23 
20 *201:68 *594:A 23 
*END

*D_NET *202 0.0153652
*CONN
*I *603:A I *D sky130_fd_sc_hd__or4_1
*I *579:A I *D sky130_fd_sc_hd__or3_1
*I *587:D_N I *D sky130_fd_sc_hd__or4b_1
*I *636:A1 I *D sky130_fd_sc_hd__a32o_1
*I *578:B1 I *D sky130_fd_sc_hd__o21ai_1
*I *597:A I *D sky130_fd_sc_hd__or4_1
*I *600:A I *D sky130_fd_sc_hd__or4_1
*I *750:A I *D sky130_fd_sc_hd__dlygate4sd3_1
*I *583:A I *D sky130_fd_sc_hd__nand2_1
*I *702:Q O *D sky130_fd_sc_hd__dfrtp_4
*CAP
1 *603:A 0.000367176
2 *579:A 0.000243597
3 *587:D_N 0
4 *636:A1 0.000381203
5 *578:B1 0
6 *597:A 0
7 *600:A 6.90231e-05
8 *750:A 0.000115506
9 *583:A 0
10 *702:Q 0.000937143
11 *202:100 0.000827073
12 *202:79 0.00128103
13 *202:77 0.000632085
14 *202:71 0.000788582
15 *202:60 0.00017566
16 *202:53 0.000143007
17 *202:45 0.000251049
18 *202:34 0.000566809
19 *202:21 0.000795675
20 *202:12 0.000293596
21 *202:8 0.0010103
22 *636:A1 *636:A2 1.76557e-05
23 *636:A1 *206:26 0.000309615
24 *202:34 *205:37 4.334e-05
25 *202:100 *580:C 5.55743e-06
26 *202:100 *587:C 2.33782e-05
27 *578:A1 *202:60 0.000140021
28 *578:A1 *202:71 0.000223427
29 *579:C *579:A 0.000104933
30 *582:B *636:A1 1.29944e-05
31 *582:B *202:79 3.44862e-05
32 *583:B *202:12 6.07611e-06
33 *583:B *202:21 0.000207437
34 *583:B *202:34 5.18047e-05
35 *584:A1 *600:A 0.000144494
36 *586:A *579:A 5.90851e-05
37 *592:A2 *603:A 5.50106e-05
38 *592:A3 *603:A 9.84851e-05
39 *600:C *600:A 3.4394e-05
40 *600:C *202:45 5.3304e-05
41 *611:A2 *202:100 0.000564792
42 *611:B1 *202:100 3.00511e-05
43 *616:B1_N *202:12 0
44 *618:S *202:34 0.000239923
45 *618:S *202:53 6.12484e-05
46 *619:A *202:45 5.58003e-05
47 *619:A *202:60 8.68775e-05
48 *636:A3 *636:A1 0.000204779
49 *636:B1 *636:A1 0
50 *702:D *202:8 1.24365e-05
51 *61:8 *202:53 0.000162254
52 *64:10 *202:71 4.41821e-06
53 *64:10 *202:77 6.72382e-05
54 *64:10 *202:100 6.69072e-05
55 *81:12 *579:A 1.47789e-05
56 *81:12 *202:79 8.0612e-06
57 *81:29 *202:77 0.000226899
58 *81:31 *202:60 8.42292e-05
59 *81:31 *202:71 0.000279219
60 *81:31 *202:77 5.58003e-05
61 *81:33 *202:45 4.08664e-05
62 *81:33 *202:60 0.000187363
63 *81:69 *202:53 0.000164545
64 *83:10 *603:A 0.000152171
65 *83:10 *202:71 1.0092e-05
66 *85:49 *579:A 1.35714e-05
67 *85:70 *600:A 1.24376e-05
68 *85:70 *202:45 1.41129e-05
69 *85:70 *202:60 1.57659e-05
70 *85:97 *603:A 0.000286796
71 *86:10 *202:53 2.64616e-05
72 *88:10 *202:8 0.000152787
73 *90:20 *579:A 3.21898e-05
74 *91:10 *579:A 3.13192e-05
75 *91:10 *202:79 2.35118e-06
76 *91:10 *202:100 6.70982e-06
77 *94:23 *603:A 0.000330923
78 *108:10 *636:A1 0.000132638
79 *109:8 *636:A1 0.000108227
80 *126:99 *579:A 0.000135616
81 *127:22 *202:53 1.24376e-05
82 *139:10 *603:A 3.13192e-05
83 *139:10 *202:71 1.142e-05
84 *140:63 *202:21 0.000167113
85 *148:12 *202:8 1.73399e-05
86 *159:8 *636:A1 1.32939e-05
87 *159:28 *750:A 0.000224605
88 *166:14 *202:12 0
89 *187:8 *202:34 0.000112294
90 *201:29 *636:A1 0
91 *201:50 *202:71 2.50118e-05
92 *201:72 *579:A 7.74223e-05
93 *201:110 *603:A 8.62876e-05
*RES
1 *702:Q *202:8 35.905 
2 *202:8 *202:12 16.2014 
3 *202:12 *583:A 38 
4 *202:12 *202:21 5.42714 
5 *202:21 *750:A 40.5271 
6 *202:21 *202:34 23.9486 
7 *202:34 *600:A 25.0714 
8 *202:34 *202:45 1.09786 
9 *202:45 *202:53 33.5836 
10 *202:53 *597:A 23 
11 *202:45 *202:60 3.00357 
12 *202:60 *578:B1 23 
13 *202:60 *202:71 18.8529 
14 *202:71 *202:77 34.4329 
15 *202:77 *202:79 1.55357 
16 *202:79 *636:A1 46.5757 
17 *202:79 *202:100 27.0971 
18 *202:100 *587:D_N 23 
19 *202:77 *579:A 44.1107 
20 *202:71 *603:A 47.7564 
*END

*D_NET *203 0.00167146
*CONN
*I *737:A I *D sky130_fd_sc_hd__dlygate4sd3_1
*I *577:A I *D sky130_fd_sc_hd__buf_2
*I *698:Q O *D sky130_fd_sc_hd__dfstp_1
*CAP
1 *737:A 9.71266e-05
2 *577:A 0.000284878
3 *698:Q 0.00029193
4 *203:10 0.000673935
5 *203:10 *219:24 3.81391e-05
6 *673:B *737:A 6.17973e-05
7 *673:C *577:A 0.000136292
8 *691:SET_B *577:A 7.03663e-05
9 *82:83 *577:A 0
10 *161:45 *203:10 0
11 *188:26 *203:10 1.69977e-05
12 *198:10 *203:10 0
*RES
1 *698:Q *203:10 43.1061 
2 *203:10 *577:A 43.7793 
3 *203:10 *737:A 40.0507 
*END

*D_NET *204 0.00168883
*CONN
*I *731:A I *D sky130_fd_sc_hd__dlygate4sd3_1
*I *580:C I *D sky130_fd_sc_hd__or3_2
*I *587:C I *D sky130_fd_sc_hd__or4b_1
*I *691:Q O *D sky130_fd_sc_hd__dfstp_1
*CAP
1 *731:A 7.67069e-05
2 *580:C 0.000187376
3 *587:C 6.9356e-05
4 *691:Q 2.61128e-05
5 *204:12 0.000404466
6 *204:6 0.000250553
7 *610:B1 *580:C 5.56279e-05
8 *611:A2 *587:C 0.000100061
9 *643:B *204:12 4.2812e-06
10 *82:18 *204:12 6.54906e-05
11 *96:10 *731:A 0.000100672
12 *142:36 *580:C 8.53325e-05
13 *142:36 *587:C 0.000233862
14 *202:100 *580:C 5.55743e-06
15 *202:100 *587:C 2.33782e-05
*RES
1 *691:Q *204:6 23.3832 
2 *204:6 *204:12 32.2579 
3 *204:12 *587:C 25.5271 
4 *204:12 *580:C 26.5214 
5 *204:6 *731:A 25.0921 
*END

*D_NET *205 0.00694042
*CONN
*I *747:A I *D sky130_fd_sc_hd__dlygate4sd3_1
*I *636:A2 I *D sky130_fd_sc_hd__a32o_1
*I *612:A I *D sky130_fd_sc_hd__or2b_1
*I *618:A0 I *D sky130_fd_sc_hd__mux2_1
*I *633:A1 I *D sky130_fd_sc_hd__a21o_1
*I *616:A1 I *D sky130_fd_sc_hd__a21boi_1
*I *692:Q O *D sky130_fd_sc_hd__dfrtp_2
*CAP
1 *747:A 0
2 *636:A2 0.000150452
3 *612:A 0
4 *618:A0 0
5 *633:A1 0
6 *616:A1 0.000265493
7 *692:Q 0
8 *205:66 0.000203332
9 *205:59 0.000153553
10 *205:51 0.000312224
11 *205:37 0.000464443
12 *205:23 0.000775022
13 *205:21 0.000619614
14 *205:6 0.000468739
15 *583:B *205:37 8.62783e-05
16 *616:B1_N *616:A1 2.02872e-05
17 *618:A1 *205:21 0.000127272
18 *618:A1 *205:23 0.000390685
19 *618:A1 *205:51 5.3304e-05
20 *618:A1 *205:59 0.000182826
21 *636:A1 *636:A2 1.76557e-05
22 *636:A3 *636:A2 0.000236909
23 *636:A3 *205:66 8.52481e-05
24 *738:A *636:A2 5.50106e-05
25 *33:10 *616:A1 0.000151624
26 *87:12 *205:59 0
27 *87:16 *205:59 0.0002263
28 *87:16 *205:66 5.67058e-05
29 *110:12 *616:A1 0.000475656
30 *110:12 *205:21 0.000165593
31 *159:8 *636:A2 0.000443679
32 *159:28 *205:37 0.000521665
33 *166:14 *616:A1 0
34 *166:14 *205:21 0
35 *166:14 *205:59 7.49522e-05
36 *184:21 *205:21 5.31444e-05
37 *184:21 *205:59 5.94125e-05
38 *202:34 *205:37 4.334e-05
*RES
1 *692:Q *205:6 38 
2 *205:6 *616:A1 44.7943 
3 *205:6 *205:21 19.0186 
4 *205:21 *205:23 4.43286 
5 *205:23 *205:37 38.6793 
6 *205:37 *633:A1 23 
7 *205:23 *618:A0 23 
8 *205:21 *205:51 1.94714 
9 *205:51 *205:59 34.785 
10 *205:59 *612:A 23 
11 *205:51 *205:66 1.57429 
12 *205:66 *636:A2 29.3593 
13 *205:66 *747:A 23 
*END

*D_NET *206 0.00738353
*CONN
*I *751:A I *D sky130_fd_sc_hd__dlygate4sd3_1
*I *580:B I *D sky130_fd_sc_hd__or3_2
*I *587:B I *D sky130_fd_sc_hd__or4b_1
*I *612:B_N I *D sky130_fd_sc_hd__or2b_1
*I *693:Q O *D sky130_fd_sc_hd__dfrtp_1
*CAP
1 *751:A 0
2 *580:B 0.000389288
3 *587:B 0
4 *612:B_N 0
5 *693:Q 0.00058873
6 *206:37 0.000620814
7 *206:26 0.000948576
8 *206:16 0.00133544
9 *206:12 0.000155338
10 *206:10 0.00058873
11 *206:26 *636:B2 2.93747e-05
12 *206:26 *207:14 0.000136851
13 *206:37 *207:49 0.000190047
14 *582:A *206:26 9.66668e-05
15 *582:B *206:26 1.0092e-05
16 *636:A1 *206:26 0.000309615
17 *636:A3 *206:26 7.42621e-05
18 *636:B1 *206:26 1.99409e-05
19 *643:A *206:16 0
20 *643:B *206:10 9.5876e-06
21 *693:D *206:10 7.88512e-05
22 *693:RESET_B *206:10 7.24392e-05
23 *725:A *206:26 0.000367267
24 *727:A *206:26 0.000127747
25 *730:A *206:26 0.000125059
26 *24:6 *580:B 0.000278215
27 *25:8 *206:10 4.49561e-05
28 *87:12 *206:26 2.20564e-05
29 *126:30 *206:10 0
30 *126:30 *206:37 0.000419878
31 *142:36 *580:B 0.000205245
32 *154:27 *206:26 0.000102971
33 *159:8 *206:26 6.15457e-06
34 *201:29 *206:26 1.41891e-05
35 *201:42 *206:26 1.51481e-05
*RES
1 *693:Q *206:10 47.8807 
2 *206:10 *206:12 15 
3 *206:12 *206:16 2.9 
4 *206:16 *206:26 47.7936 
5 *206:26 *612:B_N 23 
6 *206:16 *206:37 35.7793 
7 *206:37 *587:B 23 
8 *206:37 *580:B 30.0014 
9 *206:12 *751:A 23 
*END

*D_NET *207 0.00509999
*CONN
*I *580:A I *D sky130_fd_sc_hd__or3_2
*I *757:A I *D sky130_fd_sc_hd__dlygate4sd3_1
*I *587:A I *D sky130_fd_sc_hd__or4b_1
*I *611:A1 I *D sky130_fd_sc_hd__o22a_1
*I *636:B2 I *D sky130_fd_sc_hd__a32o_1
*I *694:Q O *D sky130_fd_sc_hd__dfrtp_1
*CAP
1 *580:A 0
2 *757:A 0
3 *587:A 0
4 *611:A1 0
5 *636:B2 1.55527e-05
6 *694:Q 0.000179437
7 *207:64 0.000222182
8 *207:49 0.000561849
9 *207:34 0.000463371
10 *207:27 0.000389154
11 *207:14 0.000391418
12 *207:10 0.000289853
13 *611:A2 *207:34 0.000350835
14 *611:A2 *207:49 5.12834e-05
15 *611:B1 *207:34 6.17437e-06
16 *636:B1 *636:B2 3.22879e-05
17 *636:B1 *207:14 6.9805e-05
18 *694:CLK *207:10 2.93845e-05
19 *24:6 *207:34 0.000104729
20 *35:10 *207:10 2.60152e-05
21 *106:8 *207:49 5.3304e-05
22 *106:8 *207:64 0.00031021
23 *109:8 *207:27 0
24 *126:30 *207:10 0.000303269
25 *142:12 *207:10 0.000247678
26 *142:36 *207:34 0.000138859
27 *142:36 *207:49 5.3304e-05
28 *159:8 *207:14 4.39488e-05
29 *165:10 *207:27 3.56796e-05
30 *168:25 *207:64 0.000101643
31 *194:14 *207:64 8.32783e-05
32 *198:10 *207:27 0.000189214
33 *206:26 *636:B2 2.93747e-05
34 *206:26 *207:14 0.000136851
35 *206:37 *207:49 0.000190047
*RES
1 *694:Q *207:10 43.1164 
2 *207:10 *207:14 18.0036 
3 *207:14 *636:B2 23.6214 
4 *207:14 *207:27 35.4271 
5 *207:27 *611:A1 23 
6 *207:27 *207:34 3.95643 
7 *207:34 *587:A 23 
8 *207:34 *207:49 36.235 
9 *207:49 *757:A 23 
10 *207:49 *207:64 36.235 
11 *207:64 *580:A 23 
*END

*D_NET *208 0.0117658
*CONN
*I *748:A I *D sky130_fd_sc_hd__dlygate4sd3_1
*I *627:A1 I *D sky130_fd_sc_hd__a21oi_1
*I *629:A I *D sky130_fd_sc_hd__nor2_1
*I *624:C I *D sky130_fd_sc_hd__nand3_1
*I *626:A2 I *D sky130_fd_sc_hd__a21bo_1
*I *644:C I *D sky130_fd_sc_hd__and4_1
*I *623:A2 I *D sky130_fd_sc_hd__a32o_1
*I *640:S0 I *D sky130_fd_sc_hd__mux4_1
*I *638:S0 I *D sky130_fd_sc_hd__mux4_1
*I *695:Q O *D sky130_fd_sc_hd__dfrtp_4
*CAP
1 *748:A 0.000135053
2 *627:A1 4.57773e-05
3 *629:A 8.4818e-05
4 *624:C 0
5 *626:A2 0
6 *644:C 0
7 *623:A2 2.34823e-05
8 *640:S0 8.57648e-05
9 *638:S0 2.91901e-05
10 *695:Q 4.24211e-05
11 *208:72 0.000624383
12 *208:62 0.00161096
13 *208:52 0.00107073
14 *208:44 0.000382652
15 *208:32 0.000413907
16 *208:20 0.000426858
17 *208:14 0.000585669
18 *208:10 0.000385995
19 *208:8 0.000295201
20 *623:A2 *220:32 0
21 *629:A *622:A 0
22 *629:A *220:81 0.000177202
23 *638:S0 *638:A3 9.5877e-05
24 *638:S0 *211:25 9.88799e-05
25 *640:S0 *209:87 5.3304e-05
26 *208:20 *220:10 0
27 *208:32 *209:46 0.000201307
28 *208:32 *220:32 0.000115752
29 *208:32 *220:41 0
30 *208:44 *624:A 0.000276046
31 *208:44 *644:D 5.3304e-05
32 *208:44 *209:27 0.000254255
33 *208:44 *209:31 0.000100069
34 *208:44 *209:46 4.44329e-05
35 *208:44 *220:32 9.1497e-05
36 *208:52 *642:A1 1.14452e-05
37 *208:52 *220:41 6.17437e-06
38 *208:52 *220:47 0.000135547
39 *208:72 *638:A3 1.03972e-05
40 *208:72 *217:35 0.000246248
41 *623:B2 *208:62 2.93845e-05
42 *625:B1_N *208:14 0
43 *651:A *629:A 4.66969e-05
44 *652:A *208:14 0.000153505
45 *685:A1 *208:62 0.000286694
46 *685:S *208:62 1.72202e-05
47 *721:CLK *208:72 4.96303e-05
48 *36:8 *208:10 6.7177e-06
49 *36:8 *208:14 0.000103009
50 *113:26 *208:52 1.21972e-05
51 *113:26 *208:62 4.08226e-05
52 *114:6 *208:20 9.91101e-05
53 *114:16 *208:32 4.09185e-05
54 *114:29 *208:20 0.000565988
55 *115:39 *627:A1 5.50106e-05
56 *115:39 *208:10 3.47776e-05
57 *115:39 *208:14 1.14452e-05
58 *116:14 *208:32 5.84159e-06
59 *118:16 *208:14 0
60 *123:8 *640:S0 5.3304e-05
61 *123:16 *640:S0 8.4047e-05
62 *123:16 *208:62 0.000115013
63 *126:121 *208:14 3.55303e-05
64 *126:121 *208:20 0.000414466
65 *129:55 *208:62 7.88926e-05
66 *135:8 *208:62 0.000354122
67 *135:8 *208:72 0.000135038
68 *141:38 *208:72 0.000284259
69 *141:55 *208:72 6.78755e-06
70 *143:45 *208:44 8.16253e-05
71 *151:8 *640:S0 9.85378e-05
72 *151:8 *208:62 0.000117244
73 *182:8 *748:A 0
74 *182:8 *208:10 0
75 *198:10 *208:52 0.000133316
*RES
1 *695:Q *208:8 38.6214 
2 *208:8 *208:10 2.25786 
3 *208:10 *208:14 4.64 
4 *208:14 *208:20 24.5493 
5 *208:20 *208:32 33.7079 
6 *208:32 *208:44 37.8093 
7 *208:44 *208:52 32.5271 
8 *208:52 *208:62 31.6336 
9 *208:62 *208:72 40.3779 
10 *208:72 *638:S0 39.0979 
11 *208:62 *640:S0 40.175 
12 *208:52 *623:A2 23.4971 
13 *208:44 *644:C 23 
14 *208:32 *626:A2 23 
15 *208:20 *624:C 23 
16 *208:14 *629:A 41.1279 
17 *208:10 *627:A1 38.6214 
18 *208:8 *748:A 40.61 
*END

*D_NET *209 0.00822311
*CONN
*I *640:S1 I *D sky130_fd_sc_hd__mux4_1
*I *638:S1 I *D sky130_fd_sc_hd__mux4_1
*I *623:A1 I *D sky130_fd_sc_hd__a32o_1
*I *745:A I *D sky130_fd_sc_hd__dlygate4sd3_1
*I *624:B I *D sky130_fd_sc_hd__nand3_1
*I *626:A1 I *D sky130_fd_sc_hd__a21bo_1
*I *644:B I *D sky130_fd_sc_hd__and4_1
*I *696:Q O *D sky130_fd_sc_hd__dfrtp_4
*CAP
1 *640:S1 0
2 *638:S1 0.000377634
3 *623:A1 0
4 *745:A 0.000590749
5 *624:B 0
6 *626:A1 0
7 *644:B 0
8 *696:Q 5.5184e-05
9 *209:112 0.000245058
10 *209:87 0.00142468
11 *209:46 0.000196812
12 *209:31 0.000243251
13 *209:27 0.00100445
14 *209:16 0.000491625
15 *209:10 0.000269455
16 *209:8 0.00100226
17 *209:10 *220:47 3.92407e-05
18 *209:16 *624:A 1.57571e-05
19 *209:16 *644:D 1.24376e-05
20 *209:16 *220:47 0.000110922
21 *209:27 *624:A 1.76557e-05
22 *209:27 *644:D 8.17328e-05
23 *209:46 *220:32 8.93364e-06
24 *209:87 *640:A0 0.00014772
25 *209:87 *210:10 0.000314744
26 *209:112 *212:16 3.27399e-05
27 *209:112 *217:35 2.8702e-05
28 *209:112 *218:29 4.73936e-05
29 *630:A2 *745:A 0
30 *640:S0 *209:87 5.3304e-05
31 *695:CLK *745:A 5.86165e-05
32 *697:CLK *209:87 9.41435e-05
33 *697:D *209:87 3.71369e-05
34 *749:A *745:A 0.000100069
35 *59:8 *745:A 0
36 *59:8 *209:8 0
37 *113:26 *745:A 4.80423e-06
38 *113:26 *209:27 3.41998e-06
39 *114:6 *209:46 6.17437e-06
40 *115:8 *745:A 0
41 *123:8 *209:87 4.68377e-05
42 *123:8 *209:112 1.34066e-05
43 *126:121 *209:46 3.22051e-05
44 *141:38 *638:S1 0
45 *143:45 *745:A 5.24779e-05
46 *143:45 *209:27 3.95159e-06
47 *143:45 *209:46 0
48 *147:23 *209:8 0
49 *147:23 *209:10 0
50 *147:23 *209:16 0
51 *151:8 *638:S1 0.000206281
52 *151:8 *209:112 9.03784e-05
53 *185:10 *745:A 3.59884e-05
54 *186:12 *745:A 0
55 *197:16 *745:A 0
56 *198:10 *209:10 2.472e-05
57 *208:32 *209:46 0.000201307
58 *208:44 *209:27 0.000254255
59 *208:44 *209:31 0.000100069
60 *208:44 *209:46 4.44329e-05
*RES
1 *696:Q *209:8 38.8493 
2 *209:8 *209:10 2.61 
3 *209:10 *209:16 17.175 
4 *209:16 *644:B 23 
5 *209:16 *209:27 21.2143 
6 *209:27 *209:31 16.0979 
7 *209:31 *626:A1 23 
8 *209:31 *209:46 34.6814 
9 *209:46 *624:B 23 
10 *209:27 *745:A 49.2479 
11 *209:10 *623:A1 38 
12 *209:8 *209:87 47.1929 
13 *209:87 *638:S1 44.67 
14 *209:87 *209:112 49.5779 
15 *209:112 *640:S1 23 
*END

*D_NET *210 0.00435115
*CONN
*I *734:A I *D sky130_fd_sc_hd__dlygate4sd3_1
*I *641:B_N I *D sky130_fd_sc_hd__or2b_1
*I *624:A I *D sky130_fd_sc_hd__nand3_1
*I *644:A I *D sky130_fd_sc_hd__and4_1
*I *639:A I *D sky130_fd_sc_hd__or2_1
*I *697:Q O *D sky130_fd_sc_hd__dfrtp_1
*CAP
1 *734:A 0
2 *641:B_N 0
3 *624:A 0.000168311
4 *644:A 3.3043e-05
5 *639:A 0
6 *697:Q 0.000354889
7 *210:33 0.000290894
8 *210:26 0.000141539
9 *210:18 0.000376946
10 *210:14 0.000292367
11 *210:10 0.000501387
12 *624:A *644:D 2.18506e-05
13 *644:A *644:D 2.02517e-05
14 *123:16 *210:18 5.67058e-05
15 *124:8 *210:26 0.000167522
16 *126:8 *210:26 0
17 *126:12 *210:18 0.000183733
18 *126:12 *210:33 0.000168687
19 *126:121 *624:A 0.000493714
20 *126:121 *210:33 1.24376e-05
21 *126:163 *210:10 0.000113873
22 *126:163 *210:14 0.000110116
23 *129:55 *210:14 0
24 *129:59 *210:10 0
25 *147:23 *210:26 0.000218678
26 *169:10 *210:14 0
27 *208:44 *624:A 0.000276046
28 *209:16 *624:A 1.57571e-05
29 *209:27 *624:A 1.76557e-05
30 *209:87 *210:10 0.000314744
*RES
1 *697:Q *210:10 44.3386 
2 *210:10 *210:14 17.9621 
3 *210:14 *210:18 3.50071 
4 *210:18 *210:26 33.5836 
5 *210:26 *639:A 23 
6 *210:18 *210:33 2.05071 
7 *210:33 *644:A 23.8493 
8 *210:33 *624:A 29.7114 
9 *210:14 *641:B_N 23 
10 *210:10 *734:A 38 
*END

*D_NET *211 0.00348236
*CONN
*I *638:A0 I *D sky130_fd_sc_hd__mux4_1
*I *739:A I *D sky130_fd_sc_hd__dlygate4sd3_1
*I *716:Q O *D sky130_fd_sc_hd__dfxtp_1
*CAP
1 *638:A0 0
2 *739:A 0.000526696
3 *716:Q 0
4 *211:25 0.000738196
5 *211:4 0.00126489
6 *211:25 *638:A2 6.63694e-05
7 *211:25 *638:A3 0.000121408
8 *211:25 *217:35 2.59743e-05
9 *638:S0 *211:25 9.88799e-05
10 *675:A0 *739:A 5.29672e-05
11 *675:S *739:A 0.000185428
12 *75:10 *211:25 0
13 *144:92 *211:25 0.000298533
14 *151:8 *211:25 0.000103019
*RES
1 *716:Q *211:4 23 
2 *211:4 *739:A 32.2386 
3 *211:4 *211:25 43.5471 
4 *211:25 *638:A0 23 
*END

*D_NET *212 0.0030972
*CONN
*I *736:A I *D sky130_fd_sc_hd__dlygate4sd3_1
*I *638:A1 I *D sky130_fd_sc_hd__mux4_1
*I *717:Q O *D sky130_fd_sc_hd__dfxtp_1
*CAP
1 *736:A 0
2 *638:A1 0
3 *717:Q 0
4 *212:29 0.00027397
5 *212:16 0.000842293
6 *212:4 0.00111626
7 *212:16 *638:A3 5.7973e-05
8 *212:16 *217:35 0.000100907
9 *212:29 *218:14 0
10 *212:29 *218:29 8.68369e-05
11 *720:CLK *212:16 9.73106e-05
12 *721:CLK *212:16 2.31209e-05
13 *129:80 *212:29 5.40752e-05
14 *141:38 *212:16 7.55595e-05
15 *141:55 *212:16 0.000336148
16 *209:112 *212:16 3.27399e-05
*RES
1 *717:Q *212:4 23 
2 *212:4 *212:16 43.6921 
3 *212:16 *638:A1 23 
4 *212:4 *212:29 35.1164 
5 *212:29 *736:A 23 
*END

*D_NET *213 0.00142331
*CONN
*I *638:A2 I *D sky130_fd_sc_hd__mux4_1
*I *744:A I *D sky130_fd_sc_hd__dlygate4sd3_1
*I *718:Q O *D sky130_fd_sc_hd__dfxtp_1
*CAP
1 *638:A2 0.000235615
2 *744:A 4.47995e-05
3 *718:Q 0.000185147
4 *213:10 0.000465561
5 *121:8 *638:A2 2.34077e-05
6 *123:16 *638:A2 3.70094e-05
7 *129:55 *638:A2 0
8 *144:92 *744:A 1.59094e-05
9 *151:8 *638:A2 0.000184107
10 *151:8 *213:10 0.000165384
11 *211:25 *638:A2 6.63694e-05
*RES
1 *718:Q *213:10 41.3557 
2 *213:10 *744:A 38.6214 
3 *213:10 *638:A2 43.3754 
*END

*D_NET *214 0.00372817
*CONN
*I *741:A I *D sky130_fd_sc_hd__dlygate4sd3_1
*I *638:A3 I *D sky130_fd_sc_hd__mux4_1
*I *719:Q O *D sky130_fd_sc_hd__dfxtp_1
*CAP
1 *741:A 0.000582581
2 *638:A3 0.000636739
3 *719:Q 0.000303595
4 *214:8 0.00152291
5 *638:A3 *217:35 7.83645e-05
6 *741:A *217:35 0
7 *741:A *218:14 0
8 *638:S0 *638:A3 9.5877e-05
9 *689:A1 *741:A 0
10 *131:10 *741:A 4.66036e-05
11 *137:8 *638:A3 0
12 *137:8 *741:A 0
13 *141:55 *741:A 0
14 *151:16 *741:A 0.000185428
15 *177:8 *741:A 0
16 *180:8 *741:A 8.62876e-05
17 *208:72 *638:A3 1.03972e-05
18 *211:25 *638:A3 0.000121408
19 *212:16 *638:A3 5.7973e-05
*RES
1 *719:Q *214:8 41.9564 
2 *214:8 *638:A3 49.7243 
3 *214:8 *741:A 49.3514 
*END

*D_NET *215 0.00182852
*CONN
*I *733:A I *D sky130_fd_sc_hd__dlygate4sd3_1
*I *640:A0 I *D sky130_fd_sc_hd__mux4_1
*I *720:Q O *D sky130_fd_sc_hd__dfxtp_1
*CAP
1 *733:A 0.000113081
2 *640:A0 0.000539615
3 *720:Q 6.7306e-05
4 *215:8 0.000720002
5 *683:S *215:8 9.32862e-05
6 *126:163 *640:A0 0
7 *129:59 *640:A0 2.29192e-05
8 *129:80 *640:A0 4.02103e-05
9 *129:80 *733:A 2.93666e-05
10 *134:10 *215:8 5.50106e-05
11 *147:23 *733:A 0
12 *170:8 *733:A 0
13 *209:87 *640:A0 0.00014772
*RES
1 *720:Q *215:8 39.5743 
2 *215:8 *640:A0 46.845 
3 *215:8 *733:A 40.2579 
*END

*D_NET *216 0.00107526
*CONN
*I *640:A1 I *D sky130_fd_sc_hd__mux4_1
*I *732:A I *D sky130_fd_sc_hd__dlygate4sd3_1
*I *721:Q O *D sky130_fd_sc_hd__dfxtp_1
*CAP
1 *640:A1 0.000122793
2 *732:A 0.000271992
3 *721:Q 4.72659e-05
4 *216:8 0.00044205
5 *123:16 *640:A1 0
6 *123:16 *732:A 0.000102093
7 *129:55 *732:A 6.95872e-05
8 *129:59 *640:A1 0
9 *129:59 *732:A 0
10 *135:8 *216:8 1.94812e-05
*RES
1 *721:Q *216:8 38.6214 
2 *216:8 *732:A 43.7171 
3 *216:8 *640:A1 39.9057 
*END

*D_NET *217 0.00268897
*CONN
*I *640:A2 I *D sky130_fd_sc_hd__mux4_1
*I *742:A I *D sky130_fd_sc_hd__dlygate4sd3_1
*I *722:Q O *D sky130_fd_sc_hd__dfxtp_1
*CAP
1 *640:A2 0
2 *742:A 0
3 *722:Q 0.000196668
4 *217:35 0.000767984
5 *217:12 0.000767984
6 *217:10 0.000196668
7 *638:A3 *217:35 7.83645e-05
8 *741:A *217:35 0
9 *123:8 *217:35 0.000131644
10 *141:38 *217:35 9.60053e-06
11 *141:55 *217:35 0.000138226
12 *208:72 *217:35 0.000246248
13 *209:112 *217:35 2.8702e-05
14 *211:25 *217:35 2.59743e-05
15 *212:16 *217:35 0.000100907
*RES
1 *722:Q *217:10 41.0036 
2 *217:10 *217:12 15 
3 *217:12 *742:A 23 
4 *217:12 *217:35 45.9396 
5 *217:35 *640:A2 23 
*END

*D_NET *218 0.00333868
*CONN
*I *640:A3 I *D sky130_fd_sc_hd__mux4_1
*I *743:A I *D sky130_fd_sc_hd__dlygate4sd3_1
*I *723:Q O *D sky130_fd_sc_hd__dfxtp_1
*CAP
1 *640:A3 0
2 *743:A 0
3 *723:Q 0.000513871
4 *218:29 0.000388081
5 *218:14 0.000368175
6 *218:6 0.00127013
7 *720:CLK *218:6 5.37348e-06
8 *720:CLK *218:29 8.99253e-05
9 *741:A *218:14 0
10 *16:13 *218:14 8.80821e-05
11 *141:57 *218:6 0.000160623
12 *141:70 *218:6 0.000144503
13 *151:8 *218:14 0
14 *151:8 *218:29 3.99937e-05
15 *151:16 *218:14 4.94034e-05
16 *177:8 *218:14 8.62876e-05
17 *209:112 *218:29 4.73936e-05
18 *212:29 *218:14 0
19 *212:29 *218:29 8.68369e-05
*RES
1 *723:Q *218:6 30.7679 
2 *218:6 *218:14 36.6493 
3 *218:14 *743:A 23 
4 *218:6 *218:29 36.815 
5 *218:29 *640:A3 23 
*END

*D_NET *219 0.003871
*CONN
*I *763:A I *D sky130_fd_sc_hd__dlygate4sd3_1
*I *762:A I *D sky130_fd_sc_hd__dlygate4sd3_1
*I *673:A I *D sky130_fd_sc_hd__and3_1
*I *703:Q O *D sky130_fd_sc_hd__dfstp_1
*CAP
1 *763:A 0.000169005
2 *762:A 0
3 *673:A 0
4 *703:Q 5.59649e-05
5 *219:24 0.000693352
6 *219:12 0.000796489
7 *219:8 0.000328107
8 *763:A *222:10 5.61414e-05
9 *632:A1 *219:24 0.000270682
10 *661:A *763:A 3.22879e-05
11 *714:CLK *763:A 0.000243587
12 *714:CLK *219:12 0.000141869
13 *44:8 *763:A 0
14 *44:8 *219:12 0
15 *119:16 *219:12 1.12487e-05
16 *119:16 *219:24 7.39261e-05
17 *119:29 *219:12 0
18 *127:96 *219:24 0.00015686
19 *127:102 *219:24 0.00010018
20 *127:121 *219:12 1.01436e-05
21 *127:121 *219:24 0.000256538
22 *161:12 *219:8 7.67422e-05
23 *161:29 *219:24 8.65377e-05
24 *161:45 *219:24 0.000235062
25 *198:10 *219:24 3.81391e-05
26 *203:10 *219:24 3.81391e-05
*RES
1 *703:Q *219:8 38.8596 
2 *219:8 *219:12 17.2579 
3 *219:12 *219:24 46.0329 
4 *219:24 *673:A 23 
5 *219:12 *762:A 23 
6 *219:8 *763:A 42.4329 
*END

*D_NET *220 0.00749912
*CONN
*I *629:B I *D sky130_fd_sc_hd__nor2_1
*I *622:A I *D sky130_fd_sc_hd__or2b_1
*I *634:A1 I *D sky130_fd_sc_hd__a21o_1
*I *625:A1 I *D sky130_fd_sc_hd__a21bo_1
*I *623:A3 I *D sky130_fd_sc_hd__a32o_1
*I *644:D I *D sky130_fd_sc_hd__and4_1
*I *642:A1 I *D sky130_fd_sc_hd__a311o_1
*I *626:B1_N I *D sky130_fd_sc_hd__a21bo_1
*I *704:Q O *D sky130_fd_sc_hd__dfrtp_4
*CAP
1 *629:B 0
2 *622:A 0.000336148
3 *634:A1 0
4 *625:A1 0
5 *623:A3 0
6 *644:D 5.79599e-05
7 *642:A1 0.000247847
8 *626:B1_N 0
9 *704:Q 0.00049039
10 *220:81 0.000832354
11 *220:47 0.000478178
12 *220:41 0.000301803
13 *220:32 0.000678939
14 *220:14 0.000652998
15 *220:12 0.000599696
16 *220:10 0.00049039
17 *623:A2 *220:32 0
18 *624:A *644:D 2.18506e-05
19 *625:B1_N *220:10 3.70094e-05
20 *625:B1_N *220:32 0
21 *629:A *622:A 0
22 *629:A *220:81 0.000177202
23 *634:B1 *622:A 5.47808e-05
24 *644:A *644:D 2.02517e-05
25 *651:A *220:81 1.21972e-05
26 *113:26 *220:41 0.000225399
27 *114:16 *220:32 7.32674e-05
28 *116:14 *220:14 4.77213e-05
29 *116:14 *220:32 1.46522e-05
30 *118:10 *220:14 9.64943e-05
31 *118:10 *220:81 1.5769e-05
32 *122:10 *642:A1 0.000411281
33 *126:16 *642:A1 0.000102367
34 *126:121 *220:10 0
35 *147:23 *642:A1 0
36 *147:23 *220:47 0
37 *198:10 *642:A1 0.000326697
38 *198:10 *220:47 2.84912e-05
39 *208:20 *220:10 0
40 *208:32 *220:32 0.000115752
41 *208:32 *220:41 0
42 *208:44 *644:D 5.3304e-05
43 *208:44 *220:32 9.1497e-05
44 *208:52 *642:A1 1.14452e-05
45 *208:52 *220:41 6.17437e-06
46 *208:52 *220:47 0.000135547
47 *209:10 *220:47 3.92407e-05
48 *209:16 *644:D 1.24376e-05
49 *209:16 *220:47 0.000110922
50 *209:27 *644:D 8.17328e-05
51 *209:46 *220:32 8.93364e-06
*RES
1 *704:Q *220:10 45.9543 
2 *220:10 *220:12 15 
3 *220:12 *220:14 2.52714 
4 *220:14 *220:32 38.7207 
5 *220:32 *626:B1_N 23 
6 *220:32 *220:41 3.02429 
7 *220:41 *220:47 18.2314 
8 *220:47 *642:A1 46.9486 
9 *220:47 *644:D 39.595 
10 *220:41 *623:A3 23 
11 *220:14 *625:A1 23 
12 *220:12 *220:81 7.18786 
13 *220:81 *634:A1 23 
14 *220:81 *622:A 28.3857 
15 *220:12 *629:B 23 
*END

*D_NET *221 0.00181258
*CONN
*I *622:B_N I *D sky130_fd_sc_hd__or2b_1
*I *729:A I *D sky130_fd_sc_hd__dlygate4sd3_1
*I *705:Q O *D sky130_fd_sc_hd__dfrtp_1
*CAP
1 *622:B_N 0.000350012
2 *729:A 5.145e-05
3 *705:Q 0.000117923
4 *221:8 0.000519385
5 *146:21 *622:B_N 0.00015954
6 *146:21 *221:8 0.000355906
7 *152:21 *622:B_N 8.51432e-05
8 *152:21 *221:8 0.000173222
*RES
1 *705:Q *221:8 42.7229 
2 *221:8 *729:A 38.6214 
3 *221:8 *622:B_N 45.0636 
*END

*D_NET *222 0.00111243
*CONN
*I *760:A I *D sky130_fd_sc_hd__clkdlybuf4s25_1
*I *706:Q O *D sky130_fd_sc_hd__dfrtp_1
*CAP
1 *760:A 9.52808e-05
2 *706:Q 0.000215489
3 *222:10 0.00031077
4 *661:A *222:10 0.000228903
5 *714:CLK *222:10 0
6 *763:A *222:10 5.61414e-05
7 *44:8 *222:10 0
8 *127:132 *222:10 0
9 *164:8 *222:10 2.30292e-05
10 *188:26 *760:A 0.00018282
*RES
1 *706:Q *222:10 43.4893 
2 *222:10 *760:A 40.0507 
*END
