*SPEF "ieee 1481-1999"
*DESIGN "uart_top"
*DATE "11:11:11 Fri 11 11, 1111"
*VENDOR "OpenRCX"
*PROGRAM "Parallel Extraction"
*VERSION "1.0"
*DESIGN_FLOW "NAME_SCOPE LOCAL" "PIN_CAP NONE"
*DIVIDER /
*DELIMITER :
*BUS_DELIMITER []
*T_UNIT 1 NS
*C_UNIT 1 PF
*R_UNIT 1 OHM
*L_UNIT 1 HENRY

*NAME_MAP
*3 clk
*4 reset
*5 rx_data[0]
*6 rx_data[1]
*7 rx_data[2]
*8 rx_data[3]
*9 rx_data[4]
*10 rx_data[5]
*11 rx_data[6]
*12 rx_data[7]
*13 rx_done
*14 start
*15 tx_data[0]
*16 tx_data[1]
*17 tx_data[2]
*18 tx_data[3]
*19 tx_data[4]
*20 tx_data[5]
*21 tx_data[6]
*22 tx_data[7]
*23 tx_done
*24 _000_
*25 _001_
*26 _002_
*27 _003_
*28 _004_
*29 _005_
*30 _006_
*31 _007_
*32 _008_
*33 _009_
*34 _010_
*35 _011_
*36 _012_
*37 _013_
*38 _014_
*39 _015_
*40 _016_
*41 _017_
*42 _018_
*43 _019_
*44 _020_
*45 _021_
*46 _022_
*47 _023_
*48 _024_
*49 _025_
*50 _026_
*51 _027_
*52 _028_
*53 _029_
*54 _030_
*55 _031_
*56 _032_
*57 _033_
*58 _034_
*59 _035_
*60 _036_
*61 _037_
*62 _038_
*63 _039_
*64 _040_
*65 _041_
*66 _042_
*67 _043_
*68 _044_
*69 _045_
*70 _046_
*71 _047_
*72 _048_
*73 _049_
*74 _050_
*75 _051_
*76 _052_
*77 _053_
*78 _054_
*79 _055_
*80 _056_
*81 _057_
*82 _058_
*83 _059_
*84 _060_
*85 _061_
*86 _062_
*87 _063_
*88 _064_
*89 _065_
*90 _066_
*91 _067_
*92 _068_
*93 _069_
*94 _070_
*95 _071_
*96 _072_
*97 _073_
*98 _074_
*99 _075_
*100 _076_
*101 _077_
*102 _078_
*103 _079_
*104 _080_
*105 _081_
*106 _082_
*107 _083_
*108 _084_
*109 _085_
*110 _086_
*111 _087_
*112 _088_
*113 _089_
*114 _090_
*115 _091_
*116 _092_
*117 _093_
*118 _094_
*119 _095_
*120 _096_
*121 _097_
*122 _098_
*123 _099_
*124 _100_
*125 _101_
*126 _102_
*127 _103_
*128 _104_
*129 _105_
*130 _106_
*131 _107_
*132 _108_
*133 _109_
*134 _110_
*135 _111_
*136 _112_
*137 _113_
*138 _114_
*139 clknet_0_clk
*140 clknet_2_0__leaf_clk
*141 clknet_2_1__leaf_clk
*142 clknet_2_2__leaf_clk
*143 clknet_2_3__leaf_clk
*144 net1
*145 net10
*146 net11
*147 net12
*148 net13
*149 net14
*150 net15
*151 net16
*152 net17
*153 net18
*154 net19
*155 net2
*156 net20
*157 net21
*158 net22
*159 net23
*160 net24
*161 net25
*162 net26
*163 net27
*164 net28
*165 net29
*166 net3
*167 net30
*168 net31
*169 net32
*170 net33
*171 net34
*172 net35
*173 net36
*174 net37
*175 net38
*176 net39
*177 net4
*178 net40
*179 net41
*180 net42
*181 net43
*182 net44
*183 net45
*184 net46
*185 net47
*186 net48
*187 net49
*188 net5
*189 net50
*190 net51
*191 net52
*192 net53
*193 net54
*194 net55
*195 net56
*196 net6
*197 net7
*198 net8
*199 net9
*200 rx_inst\.bit_count\[0\]
*201 rx_inst\.bit_count\[1\]
*202 rx_inst\.bit_count\[2\]
*203 rx_inst\.rx
*204 rx_inst\.state\[0\]
*205 rx_inst\.state\[1\]
*206 rx_inst\.state\[2\]
*207 rx_inst\.state\[3\]
*208 tx_inst\.bit_count\[0\]
*209 tx_inst\.bit_count\[1\]
*210 tx_inst\.bit_count\[2\]
*211 tx_inst\.data_reg\[0\]
*212 tx_inst\.data_reg\[1\]
*213 tx_inst\.data_reg\[2\]
*214 tx_inst\.data_reg\[3\]
*215 tx_inst\.data_reg\[4\]
*216 tx_inst\.data_reg\[5\]
*217 tx_inst\.data_reg\[6\]
*218 tx_inst\.data_reg\[7\]
*219 tx_inst\.state\[0\]
*220 tx_inst\.state\[1\]
*221 tx_inst\.state\[2\]
*222 tx_inst\.state\[3\]
*223 FILLER_0_0_102
*224 FILLER_0_0_110
*225 FILLER_0_0_113
*226 FILLER_0_0_125
*227 FILLER_0_0_21
*228 FILLER_0_0_27
*229 FILLER_0_0_29
*230 FILLER_0_0_41
*231 FILLER_0_0_49
*232 FILLER_0_0_55
*233 FILLER_0_0_57
*234 FILLER_0_0_69
*235 FILLER_0_0_81
*236 FILLER_0_0_85
*237 FILLER_0_0_9
*238 FILLER_0_0_90
*239 FILLER_0_10_106
*240 FILLER_0_10_118
*241 FILLER_0_10_126
*242 FILLER_0_10_130
*243 FILLER_0_10_15
*244 FILLER_0_10_27
*245 FILLER_0_10_3
*246 FILLER_0_10_49
*247 FILLER_0_10_67
*248 FILLER_0_10_79
*249 FILLER_0_10_83
*250 FILLER_0_10_88
*251 FILLER_0_10_96
*252 FILLER_0_11_113
*253 FILLER_0_11_117
*254 FILLER_0_11_127
*255 FILLER_0_11_15
*256 FILLER_0_11_27
*257 FILLER_0_11_3
*258 FILLER_0_11_39
*259 FILLER_0_11_47
*260 FILLER_0_11_52
*261 FILLER_0_11_57
*262 FILLER_0_11_93
*263 FILLER_0_11_99
*264 FILLER_0_12_102
*265 FILLER_0_12_114
*266 FILLER_0_12_15
*267 FILLER_0_12_27
*268 FILLER_0_12_29
*269 FILLER_0_12_3
*270 FILLER_0_12_41
*271 FILLER_0_12_49
*272 FILLER_0_12_70
*273 FILLER_0_12_80
*274 FILLER_0_12_85
*275 FILLER_0_12_93
*276 FILLER_0_13_124
*277 FILLER_0_13_128
*278 FILLER_0_13_15
*279 FILLER_0_13_23
*280 FILLER_0_13_3
*281 FILLER_0_13_34
*282 FILLER_0_13_39
*283 FILLER_0_13_45
*284 FILLER_0_13_52
*285 FILLER_0_13_63
*286 FILLER_0_13_88
*287 FILLER_0_14_113
*288 FILLER_0_14_117
*289 FILLER_0_14_121
*290 FILLER_0_14_18
*291 FILLER_0_14_25
*292 FILLER_0_14_29
*293 FILLER_0_14_6
*294 FILLER_0_14_64
*295 FILLER_0_14_72
*296 FILLER_0_14_83
*297 FILLER_0_15_108
*298 FILLER_0_15_133
*299 FILLER_0_15_3
*300 FILLER_0_15_52
*301 FILLER_0_15_57
*302 FILLER_0_15_69
*303 FILLER_0_15_96
*304 FILLER_0_16_105
*305 FILLER_0_16_129
*306 FILLER_0_16_135
*307 FILLER_0_16_23
*308 FILLER_0_16_27
*309 FILLER_0_16_29
*310 FILLER_0_16_3
*311 FILLER_0_16_49
*312 FILLER_0_16_61
*313 FILLER_0_16_65
*314 FILLER_0_16_77
*315 FILLER_0_16_83
*316 FILLER_0_16_85
*317 FILLER_0_16_97
*318 FILLER_0_17_105
*319 FILLER_0_17_111
*320 FILLER_0_17_113
*321 FILLER_0_17_123
*322 FILLER_0_17_132
*323 FILLER_0_17_15
*324 FILLER_0_17_25
*325 FILLER_0_17_3
*326 FILLER_0_17_31
*327 FILLER_0_17_53
*328 FILLER_0_17_57
*329 FILLER_0_17_73
*330 FILLER_0_17_84
*331 FILLER_0_17_88
*332 FILLER_0_17_93
*333 FILLER_0_18_107
*334 FILLER_0_18_125
*335 FILLER_0_18_133
*336 FILLER_0_18_14
*337 FILLER_0_18_26
*338 FILLER_0_18_29
*339 FILLER_0_18_3
*340 FILLER_0_18_37
*341 FILLER_0_18_66
*342 FILLER_0_18_83
*343 FILLER_0_19_113
*344 FILLER_0_19_125
*345 FILLER_0_19_129
*346 FILLER_0_19_23
*347 FILLER_0_19_3
*348 FILLER_0_19_57
*349 FILLER_0_1_110
*350 FILLER_0_1_113
*351 FILLER_0_1_125
*352 FILLER_0_1_129
*353 FILLER_0_1_44
*354 FILLER_0_1_55
*355 FILLER_0_1_57
*356 FILLER_0_1_62
*357 FILLER_0_1_70
*358 FILLER_0_1_74
*359 FILLER_0_1_86
*360 FILLER_0_1_9
*361 FILLER_0_1_98
*362 FILLER_0_20_110
*363 FILLER_0_20_122
*364 FILLER_0_20_134
*365 FILLER_0_20_24
*366 FILLER_0_20_3
*367 FILLER_0_20_45
*368 FILLER_0_20_7
*369 FILLER_0_20_74
*370 FILLER_0_20_85
*371 FILLER_0_21_109
*372 FILLER_0_21_113
*373 FILLER_0_21_125
*374 FILLER_0_21_133
*375 FILLER_0_21_29
*376 FILLER_0_21_39
*377 FILLER_0_21_48
*378 FILLER_0_21_54
*379 FILLER_0_21_57
*380 FILLER_0_21_63
*381 FILLER_0_21_72
*382 FILLER_0_21_84
*383 FILLER_0_21_9
*384 FILLER_0_22_104
*385 FILLER_0_22_113
*386 FILLER_0_22_121
*387 FILLER_0_22_14
*388 FILLER_0_22_18
*389 FILLER_0_22_27
*390 FILLER_0_22_37
*391 FILLER_0_22_41
*392 FILLER_0_22_53
*393 FILLER_0_22_57
*394 FILLER_0_22_6
*395 FILLER_0_22_69
*396 FILLER_0_22_79
*397 FILLER_0_22_83
*398 FILLER_0_22_85
*399 FILLER_0_22_93
*400 FILLER_0_2_102
*401 FILLER_0_2_114
*402 FILLER_0_2_126
*403 FILLER_0_2_134
*404 FILLER_0_2_15
*405 FILLER_0_2_27
*406 FILLER_0_2_3
*407 FILLER_0_2_32
*408 FILLER_0_2_82
*409 FILLER_0_2_85
*410 FILLER_0_2_90
*411 FILLER_0_3_107
*412 FILLER_0_3_111
*413 FILLER_0_3_113
*414 FILLER_0_3_125
*415 FILLER_0_3_133
*416 FILLER_0_3_26
*417 FILLER_0_3_3
*418 FILLER_0_3_53
*419 FILLER_0_4_108
*420 FILLER_0_4_120
*421 FILLER_0_4_132
*422 FILLER_0_4_26
*423 FILLER_0_4_53
*424 FILLER_0_4_79
*425 FILLER_0_4_83
*426 FILLER_0_4_96
*427 FILLER_0_5_104
*428 FILLER_0_5_113
*429 FILLER_0_5_124
*430 FILLER_0_5_135
*431 FILLER_0_5_14
*432 FILLER_0_5_3
*433 FILLER_0_5_36
*434 FILLER_0_5_40
*435 FILLER_0_5_49
*436 FILLER_0_6_105
*437 FILLER_0_6_134
*438 FILLER_0_6_24
*439 FILLER_0_6_29
*440 FILLER_0_6_3
*441 FILLER_0_6_50
*442 FILLER_0_6_55
*443 FILLER_0_6_62
*444 FILLER_0_6_70
*445 FILLER_0_6_80
*446 FILLER_0_7_104
*447 FILLER_0_7_113
*448 FILLER_0_7_123
*449 FILLER_0_7_133
*450 FILLER_0_7_14
*451 FILLER_0_7_46
*452 FILLER_0_7_53
*453 FILLER_0_7_67
*454 FILLER_0_7_9
*455 FILLER_0_8_104
*456 FILLER_0_8_110
*457 FILLER_0_8_131
*458 FILLER_0_8_26
*459 FILLER_0_8_29
*460 FILLER_0_8_35
*461 FILLER_0_8_44
*462 FILLER_0_8_78
*463 FILLER_0_8_85
*464 FILLER_0_8_89
*465 FILLER_0_9_11
*466 FILLER_0_9_113
*467 FILLER_0_9_117
*468 FILLER_0_9_122
*469 FILLER_0_9_130
*470 FILLER_0_9_134
*471 FILLER_0_9_3
*472 FILLER_0_9_31
*473 FILLER_0_9_35
*474 FILLER_0_9_54
*475 FILLER_0_9_57
*476 FILLER_0_9_64
*477 FILLER_0_9_71
*478 FILLER_0_9_83
*479 FILLER_0_9_88
*480 PHY_0
*481 PHY_1
*482 PHY_10
*483 PHY_11
*484 PHY_12
*485 PHY_13
*486 PHY_14
*487 PHY_15
*488 PHY_16
*489 PHY_17
*490 PHY_18
*491 PHY_19
*492 PHY_2
*493 PHY_20
*494 PHY_21
*495 PHY_22
*496 PHY_23
*497 PHY_24
*498 PHY_25
*499 PHY_26
*500 PHY_27
*501 PHY_28
*502 PHY_29
*503 PHY_3
*504 PHY_30
*505 PHY_31
*506 PHY_32
*507 PHY_33
*508 PHY_34
*509 PHY_35
*510 PHY_36
*511 PHY_37
*512 PHY_38
*513 PHY_39
*514 PHY_4
*515 PHY_40
*516 PHY_41
*517 PHY_42
*518 PHY_43
*519 PHY_44
*520 PHY_45
*521 PHY_5
*522 PHY_6
*523 PHY_7
*524 PHY_8
*525 PHY_9
*526 TAP_46
*527 TAP_47
*528 TAP_48
*529 TAP_49
*530 TAP_50
*531 TAP_51
*532 TAP_52
*533 TAP_53
*534 TAP_54
*535 TAP_55
*536 TAP_56
*537 TAP_57
*538 TAP_58
*539 TAP_59
*540 TAP_60
*541 TAP_61
*542 TAP_62
*543 TAP_63
*544 TAP_64
*545 TAP_65
*546 TAP_66
*547 TAP_67
*548 TAP_68
*549 TAP_69
*550 TAP_70
*551 TAP_71
*552 TAP_72
*553 TAP_73
*554 TAP_74
*555 TAP_75
*556 TAP_76
*557 TAP_77
*558 TAP_78
*559 TAP_79
*560 TAP_80
*561 TAP_81
*562 TAP_82
*563 TAP_83
*564 TAP_84
*565 TAP_85
*566 TAP_86
*567 TAP_87
*568 TAP_88
*569 TAP_89
*570 TAP_90
*571 TAP_91
*572 TAP_92
*573 TAP_93
*574 TAP_94
*575 TAP_95
*576 _115_
*577 _116_
*578 _117_
*579 _118_
*580 _119_
*581 _120_
*582 _121_
*583 _122_
*584 _123_
*585 _124_
*586 _125_
*587 _126_
*588 _127_
*589 _128_
*590 _129_
*591 _130_
*592 _131_
*593 _132_
*594 _133_
*595 _134_
*596 _135_
*597 _136_
*598 _137_
*599 _138_
*600 _139_
*601 _140_
*602 _141_
*603 _142_
*604 _143_
*605 _144_
*606 _145_
*607 _146_
*608 _147_
*609 _148_
*610 _149_
*611 _150_
*612 _151_
*613 _152_
*614 _153_
*615 _154_
*616 _155_
*617 _156_
*618 _157_
*619 _158_
*620 _159_
*621 _160_
*622 _161_
*623 _162_
*624 _163_
*625 _164_
*626 _165_
*627 _166_
*628 _167_
*629 _168_
*630 _169_
*631 _170_
*632 _171_
*633 _172_
*634 _173_
*635 _174_
*636 _175_
*637 _176_
*638 _177_
*639 _178_
*640 _179_
*641 _180_
*642 _181_
*643 _182_
*644 _183_
*645 _184_
*646 _185_
*647 _186_
*648 _187_
*649 _188_
*650 _189_
*651 _190_
*652 _191_
*653 _192_
*654 _193_
*655 _194_
*656 _195_
*657 _196_
*658 _197_
*659 _198_
*660 _199_
*661 _200_
*662 _201_
*663 _202_
*664 _203_
*665 _204_
*666 _205_
*667 _206_
*668 _207_
*669 _208_
*670 _209_
*671 _210_
*672 _211_
*673 _212_
*674 _213_
*675 _214_
*676 _215_
*677 _216_
*678 _217_
*679 _218_
*680 _219_
*681 _220_
*682 _221_
*683 _222_
*684 _223_
*685 _224_
*686 _225_
*687 _226_
*688 _227_
*689 _228_
*690 _229_
*691 _230_
*692 _231_
*693 _232_
*694 _233_
*695 _234_
*696 _235_
*697 _236_
*698 _237_
*699 _238_
*700 _239_
*701 _240_
*702 _241_
*703 _242_
*704 _243_
*705 _244_
*706 _245_
*707 _246_
*708 _247_
*709 _248_
*710 _249_
*711 _250_
*712 _251_
*713 _252_
*714 _253_
*715 _254_
*716 _255_
*717 _256_
*718 _257_
*719 _258_
*720 _259_
*721 _260_
*722 _261_
*723 _262_
*724 clkbuf_0_clk
*725 clkbuf_2_0__f_clk
*726 clkbuf_2_1__f_clk
*727 clkbuf_2_2__f_clk
*728 clkbuf_2_3__f_clk
*729 hold1
*730 hold10
*731 hold11
*732 hold12
*733 hold13
*734 hold14
*735 hold15
*736 hold16
*737 hold17
*738 hold18
*739 hold19
*740 hold2
*741 hold20
*742 hold21
*743 hold22
*744 hold23
*745 hold24
*746 hold25
*747 hold26
*748 hold27
*749 hold28
*750 hold29
*751 hold3
*752 hold30
*753 hold31
*754 hold32
*755 hold33
*756 hold34
*757 hold35
*758 hold36
*759 hold4
*760 hold5
*761 hold6
*762 hold7
*763 hold8
*764 hold9
*765 input1
*766 input10
*767 input2
*768 input3
*769 input4
*770 input5
*771 input6
*772 input7
*773 input8
*774 input9
*775 output11
*776 output12
*777 output13
*778 output14
*779 output15
*780 output16
*781 output17
*782 output18
*783 output19
*784 output20

*PORTS
clk I
reset I
rx_data[0] O
rx_data[1] O
rx_data[2] O
rx_data[3] O
rx_data[4] O
rx_data[5] O
rx_data[6] O
rx_data[7] O
rx_done O
start I
tx_data[0] I
tx_data[1] I
tx_data[2] I
tx_data[3] I
tx_data[4] I
tx_data[5] I
tx_data[6] I
tx_data[7] I
tx_done O

*D_NET *3 0.00656156
*CONN
*P clk I
*I *724:A I *D sky130_fd_sc_hd__clkbuf_16
*CAP
1 clk 0.00314803
2 *724:A 0.00314803
3 *724:A *589:A0 0
4 *724:A *607:S 4.62928e-05
5 *724:A *608:A 0.000170671
6 *724:A *665:A 0
7 *724:A *784:A 0
8 *724:A *126:18 2.56866e-05
9 *724:A *198:16 2.28415e-05
*RES
1 clk *724:A 38.4854 
*END

*D_NET *4 0.00176753
*CONN
*P reset I
*I *765:A I *D sky130_fd_sc_hd__clkbuf_4
*CAP
1 reset 0.000883766
2 *765:A 0.000883766
*RES
1 reset *765:A 12.566 
*END

*D_NET *5 0.000871892
*CONN
*P rx_data[0] O
*I *775:X O *D sky130_fd_sc_hd__clkbuf_4
*CAP
1 rx_data[0] 0.000435946
2 *775:X 0.000435946
*RES
1 *775:X rx_data[0] 10.86 
*END

*D_NET *6 0.000991496
*CONN
*P rx_data[1] O
*I *776:X O *D sky130_fd_sc_hd__clkbuf_4
*CAP
1 rx_data[1] 0.000495748
2 *776:X 0.000495748
*RES
1 *776:X rx_data[1] 11.55 
*END

*D_NET *7 0.000554913
*CONN
*P rx_data[2] O
*I *777:X O *D sky130_fd_sc_hd__clkbuf_4
*CAP
1 rx_data[2] 0.000277456
2 *777:X 0.000277456
3 rx_data[2] rx_data[7] 0
*RES
1 *777:X rx_data[2] 6.73043 
*END

*D_NET *8 0.0004625
*CONN
*P rx_data[3] O
*I *778:X O *D sky130_fd_sc_hd__clkbuf_4
*CAP
1 rx_data[3] 0.00023125
2 *778:X 0.00023125
*RES
1 *778:X rx_data[3] 6.64043 
*END

*D_NET *9 0.000467955
*CONN
*P rx_data[4] O
*I *779:X O *D sky130_fd_sc_hd__clkbuf_4
*CAP
1 rx_data[4] 0.000228122
2 *779:X 0.000228122
3 rx_data[4] *155:18 1.17114e-05
*RES
1 *779:X rx_data[4] 5.2385 
*END

*D_NET *10 0.00085512
*CONN
*P rx_data[5] O
*I *780:X O *D sky130_fd_sc_hd__clkbuf_4
*CAP
1 rx_data[5] 0.00042756
2 *780:X 0.00042756
3 rx_data[5] *719:D 0
4 rx_data[5] *141:74 0
*RES
1 *780:X rx_data[5] 7.61717 
*END

*D_NET *11 0.000647377
*CONN
*P rx_data[6] O
*I *781:X O *D sky130_fd_sc_hd__clkbuf_4
*CAP
1 rx_data[6] 0.000240172
2 *781:X 0.000240172
3 rx_data[6] *775:A 6.06899e-05
4 rx_data[6] *781:A 0.000106344
*RES
1 *781:X rx_data[6] 5.92503 
*END

*D_NET *12 0.00132797
*CONN
*P rx_data[7] O
*I *782:X O *D sky130_fd_sc_hd__clkbuf_4
*CAP
1 rx_data[7] 0.000663984
2 *782:X 0.000663984
3 rx_data[2] rx_data[7] 0
*RES
1 *782:X rx_data[7] 14.925 
*END

*D_NET *13 0.000656106
*CONN
*P rx_done O
*I *783:X O *D sky130_fd_sc_hd__clkbuf_4
*CAP
1 rx_done 0.000328053
2 *783:X 0.000328053
*RES
1 *783:X rx_done 9.39 
*END

*D_NET *14 0.00130187
*CONN
*P start I
*I *767:A I *D sky130_fd_sc_hd__buf_1
*CAP
1 start 0.000650933
2 *767:A 0.000650933
*RES
1 start *767:A 14.835 
*END

*D_NET *15 0.000882036
*CONN
*P tx_data[0] I
*I *768:A I *D sky130_fd_sc_hd__clkbuf_1
*CAP
1 tx_data[0] 0.000422372
2 *768:A 0.000422372
3 *768:A *675:A1 3.72916e-05
*RES
1 tx_data[0] *768:A 11.04 
*END

*D_NET *16 0.00111976
*CONN
*P tx_data[1] I
*I *769:A I *D sky130_fd_sc_hd__clkbuf_1
*CAP
1 tx_data[1] 0.000479359
2 *769:A 0.000479359
3 *769:A *743:A 7.58604e-05
4 *769:A *780:A 8.51862e-05
*RES
1 tx_data[1] *769:A 12.525 
*END

*D_NET *17 0.000596532
*CONN
*P tx_data[2] I
*I *770:A I *D sky130_fd_sc_hd__buf_1
*CAP
1 tx_data[2] 0.000298266
2 *770:A 0.000298266
3 *770:A *781:A 0
*RES
1 tx_data[2] *770:A 7.67543 
*END

*D_NET *18 0.00211287
*CONN
*P tx_data[3] I
*I *771:A I *D sky130_fd_sc_hd__clkbuf_1
*CAP
1 tx_data[3] 0.000853685
2 *771:A 0.000853685
3 *771:A *682:A 0
4 *771:A *689:A1 0.00016569
5 *771:A *780:A 0.000239813
*RES
1 tx_data[3] *771:A 13.0858 
*END

*D_NET *19 0.00102574
*CONN
*P tx_data[4] I
*I *772:A I *D sky130_fd_sc_hd__clkbuf_1
*CAP
1 tx_data[4] 0.000503677
2 *772:A 0.000503677
3 *772:A *683:A1 1.83847e-05
*RES
1 tx_data[4] *772:A 12.315 
*END

*D_NET *20 0.000880836
*CONN
*P tx_data[5] I
*I *773:A I *D sky130_fd_sc_hd__buf_1
*CAP
1 tx_data[5] 0.000431226
2 *773:A 0.000431226
3 *773:A *198:16 1.83847e-05
*RES
1 tx_data[5] *773:A 11.04 
*END

*D_NET *21 0.000592992
*CONN
*P tx_data[6] I
*I *774:A I *D sky130_fd_sc_hd__clkbuf_1
*CAP
1 tx_data[6] 0.000296496
2 *774:A 0.000296496
*RES
1 tx_data[6] *774:A 6.37677 
*END

*D_NET *22 0.000935843
*CONN
*P tx_data[7] I
*I *766:A I *D sky130_fd_sc_hd__clkbuf_1
*CAP
1 tx_data[7] 0.000467921
2 *766:A 0.000467921
*RES
1 tx_data[7] *766:A 11.625 
*END

*D_NET *23 0.000675216
*CONN
*P tx_done O
*I *784:X O *D sky130_fd_sc_hd__buf_2
*CAP
1 tx_done 0.000263015
2 *784:X 0.000263015
3 tx_done *155:18 0.000149186
*RES
1 *784:X tx_done 6.37677 
*END

*D_NET *24 0.00176452
*CONN
*I *691:D I *D sky130_fd_sc_hd__dfstp_1
*I *611:B1 I *D sky130_fd_sc_hd__o22a_1
*I *610:X O *D sky130_fd_sc_hd__o21a_1
*CAP
1 *691:D 8.44731e-05
2 *611:B1 6.83661e-05
3 *610:X 0.000128549
4 *24:6 0.000281388
5 *611:B1 *587:D_N 3.25525e-05
6 *611:B1 *611:A2 2.64923e-05
7 *611:B1 *91:10 0.000160338
8 *611:B1 *207:34 5.83121e-06
9 *691:D *198:16 7.09016e-05
10 *24:6 *580:B 0.000235353
11 *24:6 *712:CLK 0.000344351
12 *24:6 *91:10 0.000230041
13 *24:6 *207:34 9.58835e-05
*RES
1 *610:X *24:6 6.535 
2 *24:6 *611:B1 3.7 
3 *24:6 *691:D 7.235 
*END

*D_NET *25 0.000604389
*CONN
*I *693:D I *D sky130_fd_sc_hd__dfrtp_1
*I *643:Y O *D sky130_fd_sc_hd__nor2_1
*CAP
1 *693:D 0.000241133
2 *643:Y 0.000241133
3 *693:D *206:12 0.000122123
*RES
1 *643:Y *693:D 11.355 
*END

*D_NET *26 0.000875083
*CONN
*I *705:D I *D sky130_fd_sc_hd__dfrtp_1
*I *637:Y O *D sky130_fd_sc_hd__nor2_1
*CAP
1 *705:D 0.000308343
2 *637:Y 0.000308343
3 *705:D *679:A1 9.78429e-05
4 *705:D *704:RESET_B 4.41857e-05
5 *705:D *714:CLK 0.000116367
6 *705:D *144:12 0
*RES
1 *637:Y *705:D 12.795 
*END

*D_NET *27 0.000980818
*CONN
*I *706:D I *D sky130_fd_sc_hd__dfrtp_1
*I *645:X O *D sky130_fd_sc_hd__clkbuf_1
*CAP
1 *706:D 0.000227989
2 *645:X 0.000227989
3 *706:D *642:C1 9.45636e-05
4 *706:D *706:CLK 4.82919e-05
5 *706:D *143:10 0.000103434
6 *706:D *143:45 3.3625e-05
7 *706:D *198:16 0.000244926
*RES
1 *645:X *706:D 13.11 
*END

*D_NET *28 0.000464237
*CONN
*I *759:A I *D sky130_fd_sc_hd__dlygate4sd3_1
*I *633:X O *D sky130_fd_sc_hd__a21o_1
*CAP
1 *759:A 5.79019e-05
2 *633:X 5.79019e-05
3 *759:A *633:B1 9.65915e-05
4 *759:A *707:D 0.000233466
5 *759:A *140:40 1.83756e-05
*RES
1 *633:X *759:A 5.375 
*END

*D_NET *29 0.000116022
*CONN
*I *738:A I *D sky130_fd_sc_hd__dlygate4sd3_1
*I *636:X O *D sky130_fd_sc_hd__a32o_1
*CAP
1 *738:A 9.71884e-06
2 *636:X 9.71884e-06
3 *738:A *636:A2 4.82919e-05
4 *738:A *636:A3 4.82919e-05
*RES
1 *636:X *738:A 3.65 
*END

*D_NET *30 0.000319145
*CONN
*I *703:D I *D sky130_fd_sc_hd__dfstp_1
*I *632:X O *D sky130_fd_sc_hd__a21o_1
*CAP
1 *703:D 0.000102342
2 *632:X 0.000102342
3 *703:D *642:C1 6.55328e-05
4 *703:D *127:96 4.89295e-05
*RES
1 *632:X *703:D 9.03 
*END

*D_NET *31 0.000341865
*CONN
*I *740:A I *D sky130_fd_sc_hd__dlygate4sd3_1
*I *634:X O *D sky130_fd_sc_hd__a21o_1
*CAP
1 *740:A 0.000133919
2 *634:X 0.000133919
3 *740:A *634:B1 7.4027e-05
*RES
1 *634:X *740:A 9.48 
*END

*D_NET *32 0.00178865
*CONN
*I *673:C I *D sky130_fd_sc_hd__and3_1
*I *691:SET_B I *D sky130_fd_sc_hd__dfstp_1
*I *646:Y O *D sky130_fd_sc_hd__inv_2
*CAP
1 *673:C 0.000200695
2 *691:SET_B 0.000165742
3 *646:Y 3.38648e-05
4 *32:8 0.000400302
5 *673:C *577:A 0.000129224
6 *673:C *635:A 0.000152366
7 *673:C *673:B 1.17309e-05
8 *673:C *198:16 0
9 *691:SET_B *577:A 6.5525e-05
10 *691:SET_B *635:A 7.53115e-05
11 *691:SET_B *82:83 0
12 *691:SET_B *126:30 0.000201002
13 *691:SET_B *142:62 0.000304595
14 *32:8 *82:83 4.82919e-05
*RES
1 *646:Y *32:8 4.05 
2 *32:8 *691:SET_B 7.205 
3 *32:8 *673:C 8.175 
*END

*D_NET *33 0.000646974
*CONN
*I *692:RESET_B I *D sky130_fd_sc_hd__dfrtp_2
*I *648:Y O *D sky130_fd_sc_hd__inv_2
*CAP
1 *692:RESET_B 0.000212085
2 *648:Y 0.000212085
3 *692:RESET_B *616:A1 0.000136812
4 *692:RESET_B *675:A1 3.89528e-05
5 *692:RESET_B *701:CLK 2.40101e-05
6 *692:RESET_B *110:12 2.30292e-05
*RES
1 *648:Y *692:RESET_B 8.9525 
*END

*D_NET *34 0.000319024
*CONN
*I *693:RESET_B I *D sky130_fd_sc_hd__dfrtp_1
*I *649:Y O *D sky130_fd_sc_hd__inv_2
*CAP
1 *693:RESET_B 0.000101169
2 *649:Y 0.000101169
3 *693:RESET_B *649:A 4.99619e-05
4 *693:RESET_B *206:12 6.67233e-05
*RES
1 *649:Y *693:RESET_B 3.7225 
*END

*D_NET *35 0.000898563
*CONN
*I *694:RESET_B I *D sky130_fd_sc_hd__dfrtp_1
*I *650:Y O *D sky130_fd_sc_hd__inv_2
*CAP
1 *694:RESET_B 0.000315491
2 *650:Y 0.000315491
3 *694:RESET_B *694:CLK 4.75593e-05
4 *694:RESET_B *126:30 2.16389e-05
5 *694:RESET_B *126:56 3.39496e-05
6 *694:RESET_B *142:12 5.23362e-05
7 *694:RESET_B *198:16 8.78735e-05
8 *694:RESET_B *207:14 2.42236e-05
*RES
1 *650:Y *694:RESET_B 10.4075 
*END

*D_NET *36 0.000695441
*CONN
*I *695:RESET_B I *D sky130_fd_sc_hd__dfrtp_4
*I *651:Y O *D sky130_fd_sc_hd__inv_2
*CAP
1 *695:RESET_B 0.000199782
2 *651:Y 0.000199782
3 *695:RESET_B *627:A2 0.000151448
4 *695:RESET_B *627:B1 0
5 *695:RESET_B *628:A1 4.11194e-05
6 *695:RESET_B *628:A2 0
7 *695:RESET_B *208:10 7.21296e-06
8 *695:RESET_B *208:14 9.60974e-05
*RES
1 *651:Y *695:RESET_B 9.5075 
*END

*D_NET *37 0.00170356
*CONN
*I *696:RESET_B I *D sky130_fd_sc_hd__dfrtp_4
*I *652:Y O *D sky130_fd_sc_hd__inv_2
*CAP
1 *696:RESET_B 0.000563908
2 *652:Y 0.000563908
3 *696:RESET_B *627:A2 2.04648e-05
4 *696:RESET_B *628:B1 2.05056e-05
5 *696:RESET_B *652:A 2.75229e-05
6 *696:RESET_B *696:CLK 0.000348489
7 *696:RESET_B *696:D 0.000149224
8 *696:RESET_B *143:49 9.53428e-06
*RES
1 *652:Y *696:RESET_B 11.5675 
*END

*D_NET *38 0.000482351
*CONN
*I *697:RESET_B I *D sky130_fd_sc_hd__dfrtp_1
*I *653:Y O *D sky130_fd_sc_hd__inv_2
*CAP
1 *697:RESET_B 0.000130172
2 *653:Y 0.000130172
3 *697:RESET_B *653:A 9.71067e-05
4 *697:RESET_B *683:A1 0.0001249
5 *697:RESET_B *776:A 0
*RES
1 *653:Y *697:RESET_B 7.865 
*END

*D_NET *39 0.000410073
*CONN
*I *698:SET_B I *D sky130_fd_sc_hd__dfstp_1
*I *654:Y O *D sky130_fd_sc_hd__inv_2
*CAP
1 *698:SET_B 9.2018e-05
2 *654:Y 9.2018e-05
3 *698:SET_B *126:16 8.89751e-05
4 *698:SET_B *127:96 4.99619e-05
5 *698:SET_B *198:16 8.71001e-05
*RES
1 *654:Y *698:SET_B 7.94 
*END

*D_NET *40 0.000252417
*CONN
*I *699:RESET_B I *D sky130_fd_sc_hd__dfrtp_1
*I *655:Y O *D sky130_fd_sc_hd__inv_2
*CAP
1 *699:RESET_B 0.000126209
2 *655:Y 0.000126209
3 *699:RESET_B *784:A 0
4 *699:RESET_B *82:14 0
5 *699:RESET_B *82:83 0
*RES
1 *655:Y *699:RESET_B 7.49 
*END

*D_NET *41 0.000499514
*CONN
*I *700:RESET_B I *D sky130_fd_sc_hd__dfrtp_1
*I *656:Y O *D sky130_fd_sc_hd__inv_2
*CAP
1 *700:RESET_B 0.000118361
2 *656:Y 0.000118361
3 *700:RESET_B *581:A2 4.77769e-05
4 *700:RESET_B *588:B 1.10951e-05
5 *700:RESET_B *591:A 7.03276e-05
6 *700:RESET_B *85:49 4.1235e-05
7 *700:RESET_B *139:10 9.23578e-05
*RES
1 *656:Y *700:RESET_B 7.9175 
*END

*D_NET *42 0.000253828
*CONN
*I *701:RESET_B I *D sky130_fd_sc_hd__dfrtp_4
*I *657:Y O *D sky130_fd_sc_hd__inv_2
*CAP
1 *701:RESET_B 0.00010839
2 *657:Y 0.00010839
3 *701:RESET_B *648:A 3.00381e-05
4 *701:RESET_B *126:38 7.00889e-06
5 *701:RESET_B *198:16 0
*RES
1 *657:Y *701:RESET_B 7.175 
*END

*D_NET *43 0.000506369
*CONN
*I *702:RESET_B I *D sky130_fd_sc_hd__dfrtp_4
*I *659:Y O *D sky130_fd_sc_hd__inv_2
*CAP
1 *702:RESET_B 0.000135202
2 *659:Y 0.000135202
3 *702:RESET_B *664:A 0.000141606
4 *702:RESET_B *702:D 0
5 *702:RESET_B *707:RESET_B 7.4027e-05
6 *702:RESET_B *783:A 0
7 *702:RESET_B *140:46 2.03321e-05
*RES
1 *659:Y *702:RESET_B 8.765 
*END

*D_NET *44 0.000382752
*CONN
*I *703:SET_B I *D sky130_fd_sc_hd__dfstp_1
*I *660:Y O *D sky130_fd_sc_hd__inv_2
*CAP
1 *703:SET_B 9.67697e-05
2 *660:Y 9.67697e-05
3 *703:SET_B *760:A 0
4 *703:SET_B *763:A 0
5 *703:SET_B *127:102 8.53113e-06
6 *703:SET_B *127:132 0.000180682
7 *703:SET_B *219:12 0
*RES
1 *660:Y *703:SET_B 7.745 
*END

*D_NET *45 0.000407491
*CONN
*I *704:RESET_B I *D sky130_fd_sc_hd__dfrtp_4
*I *661:Y O *D sky130_fd_sc_hd__inv_2
*CAP
1 *704:RESET_B 0.000181653
2 *661:Y 0.000181653
3 *705:D *704:RESET_B 4.41857e-05
*RES
1 *661:Y *704:RESET_B 8.765 
*END

*D_NET *46 0.000758722
*CONN
*I *705:RESET_B I *D sky130_fd_sc_hd__dfrtp_1
*I *662:Y O *D sky130_fd_sc_hd__inv_2
*CAP
1 *705:RESET_B 0.000315357
2 *662:Y 0.000315357
3 *705:RESET_B *143:92 0.000128008
*RES
1 *662:Y *705:RESET_B 5.9125 
*END

*D_NET *47 0.000250287
*CONN
*I *706:RESET_B I *D sky130_fd_sc_hd__dfrtp_1
*I *663:Y O *D sky130_fd_sc_hd__inv_2
*CAP
1 *706:RESET_B 0.00012386
2 *663:Y 0.00012386
3 *706:RESET_B *642:C1 2.56752e-06
4 *706:RESET_B *143:10 0
5 *706:RESET_B *143:14 0
*RES
1 *663:Y *706:RESET_B 7.49 
*END

*D_NET *48 0.000959288
*CONN
*I *707:RESET_B I *D sky130_fd_sc_hd__dfrtp_1
*I *664:Y O *D sky130_fd_sc_hd__inv_2
*CAP
1 *707:RESET_B 0.00013403
2 *664:Y 0.00013403
3 *707:RESET_B *664:A 3.76596e-05
4 *707:RESET_B *707:D 0.000168511
5 *707:RESET_B *127:45 1.70935e-05
6 *707:RESET_B *140:40 0.00030418
7 *707:RESET_B *140:46 8.97564e-05
8 *702:RESET_B *707:RESET_B 7.4027e-05
*RES
1 *664:Y *707:RESET_B 10.3025 
*END

*D_NET *49 0.000682069
*CONN
*I *708:RESET_B I *D sky130_fd_sc_hd__dfrtp_1
*I *665:Y O *D sky130_fd_sc_hd__inv_2
*CAP
1 *708:RESET_B 0.000255297
2 *665:Y 0.000255297
3 *708:RESET_B *589:A0 5.3518e-05
4 *708:RESET_B *589:S 7.22354e-05
5 *708:RESET_B *669:A 3.64998e-06
6 *708:RESET_B *775:A 0
7 *708:RESET_B *784:A 4.20711e-05
*RES
1 *665:Y *708:RESET_B 9.4625 
*END

*D_NET *50 0.000318297
*CONN
*I *709:RESET_B I *D sky130_fd_sc_hd__dfrtp_1
*I *666:Y O *D sky130_fd_sc_hd__inv_2
*CAP
1 *709:RESET_B 5.2933e-05
2 *666:Y 5.2933e-05
3 *709:RESET_B *605:A 5.10957e-05
4 *709:RESET_B *127:96 7.23602e-05
5 *709:RESET_B *139:26 8.89751e-05
*RES
1 *666:Y *709:RESET_B 7.49 
*END

*D_NET *51 0.000302499
*CONN
*I *710:RESET_B I *D sky130_fd_sc_hd__dfrtp_1
*I *667:Y O *D sky130_fd_sc_hd__inv_2
*CAP
1 *710:RESET_B 0.000107951
2 *667:Y 0.000107951
3 *710:RESET_B *755:A 8.65961e-05
*RES
1 *667:Y *710:RESET_B 3.3775 
*END

*D_NET *52 0.000317145
*CONN
*I *711:RESET_B I *D sky130_fd_sc_hd__dfrtp_1
*I *668:Y O *D sky130_fd_sc_hd__inv_2
*CAP
1 *711:RESET_B 0.000103823
2 *668:Y 0.000103823
3 *711:RESET_B *711:CLK 0.000109498
*RES
1 *668:Y *711:RESET_B 3.3775 
*END

*D_NET *53 0.00129428
*CONN
*I *712:RESET_B I *D sky130_fd_sc_hd__dfrtp_1
*I *669:Y O *D sky130_fd_sc_hd__inv_2
*CAP
1 *712:RESET_B 0.000241655
2 *669:Y 0.000241655
3 *712:RESET_B *758:A 0.000158337
4 *712:RESET_B *775:A 0.000140266
5 *712:RESET_B *150:10 2.69217e-05
6 *712:RESET_B *155:18 0.000485448
*RES
1 *669:Y *712:RESET_B 12.4025 
*END

*D_NET *54 0.000715287
*CONN
*I *713:RESET_B I *D sky130_fd_sc_hd__dfrtp_1
*I *670:Y O *D sky130_fd_sc_hd__inv_2
*CAP
1 *713:RESET_B 0.000172917
2 *670:Y 0.000172917
3 *713:RESET_B *675:A1 5.13155e-05
4 *713:RESET_B *754:A 8.18952e-05
5 *713:RESET_B *82:93 1.91597e-05
6 *713:RESET_B *127:30 9.47454e-05
7 *713:RESET_B *144:39 0.000122337
*RES
1 *670:Y *713:RESET_B 9.5675 
*END

*D_NET *55 0.000348453
*CONN
*I *714:RESET_B I *D sky130_fd_sc_hd__dfrtp_1
*I *671:Y O *D sky130_fd_sc_hd__inv_2
*CAP
1 *714:RESET_B 6.52327e-05
2 *671:Y 6.52327e-05
3 *714:RESET_B *714:D 5.39961e-05
4 *714:RESET_B *775:A 0
5 *714:RESET_B *144:18 0.000163992
*RES
1 *671:Y *714:RESET_B 7.49 
*END

*D_NET *56 0.00130186
*CONN
*I *715:RESET_B I *D sky130_fd_sc_hd__dfrtp_1
*I *672:Y O *D sky130_fd_sc_hd__inv_2
*CAP
1 *715:RESET_B 0.000356623
2 *672:Y 0.000356623
3 *715:RESET_B *598:S 0.000160412
4 *715:RESET_B *713:CLK 3.92518e-05
5 *715:RESET_B *715:CLK 1.33305e-05
6 *715:RESET_B *715:D 9.03138e-05
7 *715:RESET_B *746:A 0.000152843
8 *715:RESET_B *140:96 0.000132462
*RES
1 *672:Y *715:RESET_B 12.6875 
*END

*D_NET *57 0.000530895
*CONN
*I *749:A I *D sky130_fd_sc_hd__dlygate4sd3_1
*I *630:Y O *D sky130_fd_sc_hd__a21oi_1
*CAP
1 *749:A 0.000203836
2 *630:Y 0.000203836
3 *749:A *630:A1 3.79351e-05
4 *749:A *683:A1 0
5 *749:A *745:A 8.52883e-05
*RES
1 *630:Y *749:A 10.845 
*END

*D_NET *58 0.000618145
*CONN
*I *696:D I *D sky130_fd_sc_hd__dfrtp_4
*I *628:Y O *D sky130_fd_sc_hd__a21oi_1
*CAP
1 *696:D 0.000136364
2 *628:Y 0.000136364
3 *696:D *627:A2 0
4 *696:D *627:B1 0.000138695
5 *696:D *628:B1 5.74987e-05
6 *696:RESET_B *696:D 0.000149224
*RES
1 *628:Y *696:D 6.695 
*END

*D_NET *59 0.000496228
*CONN
*I *735:A I *D sky130_fd_sc_hd__dlygate4sd3_1
*I *623:X O *D sky130_fd_sc_hd__a32o_1
*CAP
1 *735:A 0.000173813
2 *623:X 0.000173813
3 *735:A *695:CLK 7.53115e-05
4 *735:A *697:D 0
5 *735:A *745:A 0
6 *735:A *776:A 0
7 *735:A *143:45 6.47594e-05
8 *735:A *198:16 8.53113e-06
9 *735:A *209:8 0
*RES
1 *623:X *735:A 10.62 
*END

*D_NET *60 0.000474401
*CONN
*I *761:A I *D sky130_fd_sc_hd__dlygate4sd3_1
*I *621:X O *D sky130_fd_sc_hd__a21o_1
*CAP
1 *761:A 0.000154764
2 *621:X 0.000154764
3 *761:A *621:A1 0
4 *761:A *144:35 0.000164874
*RES
1 *621:X *761:A 10.065 
*END

*D_NET *61 0.000564798
*CONN
*I *700:D I *D sky130_fd_sc_hd__dfrtp_1
*I *619:X O *D sky130_fd_sc_hd__clkbuf_1
*CAP
1 *700:D 0.000112957
2 *619:X 0.000112957
3 *700:D *597:A 0.000132821
4 *700:D *675:A1 9.50687e-05
5 *700:D *81:69 1.7211e-05
6 *700:D *127:30 9.37846e-05
*RES
1 *619:X *700:D 10.365 
*END

*D_NET *62 0.00029753
*CONN
*I *701:D I *D sky130_fd_sc_hd__dfrtp_4
*I *617:X O *D sky130_fd_sc_hd__a22o_1
*CAP
1 *701:D 9.88277e-05
2 *617:X 9.88277e-05
3 *701:D *110:12 0
4 *701:D *201:12 9.98747e-05
*RES
1 *617:X *701:D 9.03 
*END

*D_NET *63 0.0012391
*CONN
*I *702:D I *D sky130_fd_sc_hd__dfrtp_4
*I *613:X O *D sky130_fd_sc_hd__a22o_1
*CAP
1 *702:D 0.000313415
2 *613:X 0.000313415
3 *702:D *584:A2 0.000127373
4 *702:D *613:A2 9.60582e-07
5 *702:D *633:A2 1.16588e-05
6 *702:D *707:D 0.000136877
7 *702:D *88:10 0.000322644
8 *702:D *202:12 1.27575e-05
9 *702:RESET_B *702:D 0
*RES
1 *613:X *702:D 13.65 
*END

*D_NET *64 0.00226026
*CONN
*I *730:A I *D sky130_fd_sc_hd__dlygate4sd3_1
*I *611:X O *D sky130_fd_sc_hd__o22a_1
*CAP
1 *730:A 0.000543491
2 *611:X 0.000543491
3 *730:A *587:D_N 6.43169e-05
4 *730:A *612:B_N 0.000110537
5 *730:A *615:B 5.49293e-05
6 *730:A *764:A 0.000337346
7 *730:A *81:29 0.000156771
8 *730:A *87:12 8.41384e-05
9 *730:A *91:10 2.88357e-05
10 *730:A *107:10 4.66108e-05
11 *730:A *139:10 0.00015356
12 *730:A *201:29 9.12494e-06
13 *730:A *201:42 1.7211e-05
14 *730:A *201:50 4.41506e-05
15 *730:A *202:71 4.28112e-06
16 *730:A *202:77 6.14645e-05
*RES
1 *611:X *730:A 19.155 
*END

*D_NET *65 0.00017004
*CONN
*I *708:D I *D sky130_fd_sc_hd__dfrtp_1
*I *608:X O *D sky130_fd_sc_hd__clkbuf_1
*CAP
1 *708:D 6.0558e-05
2 *608:X 6.0558e-05
3 *708:D *608:A 3.86607e-05
4 *708:D *784:A 1.0263e-05
*RES
1 *608:X *708:D 8.22375 
*END

*D_NET *66 0.000434837
*CONN
*I *709:D I *D sky130_fd_sc_hd__dfrtp_1
*I *605:X O *D sky130_fd_sc_hd__clkbuf_1
*CAP
1 *709:D 0.000158155
2 *605:X 0.000158155
3 *709:D *675:A1 0
4 *709:D *129:10 0.000118527
*RES
1 *605:X *709:D 10.065 
*END

*D_NET *67 0.000427968
*CONN
*I *710:D I *D sky130_fd_sc_hd__dfrtp_1
*I *602:X O *D sky130_fd_sc_hd__clkbuf_1
*CAP
1 *710:D 0.000211068
2 *602:X 0.000211068
3 *710:D *710:CLK 5.83121e-06
4 *710:D *782:A 0
*RES
1 *602:X *710:D 10.41 
*END

*D_NET *68 0.000575151
*CONN
*I *711:D I *D sky130_fd_sc_hd__dfrtp_1
*I *599:X O *D sky130_fd_sc_hd__clkbuf_1
*CAP
1 *711:D 0.000206825
2 *599:X 0.000206825
3 *711:D *778:A 0.0001615
*RES
1 *599:X *711:D 10.155 
*END

*D_NET *69 0.000260646
*CONN
*I *712:D I *D sky130_fd_sc_hd__dfrtp_1
*I *596:X O *D sky130_fd_sc_hd__clkbuf_1
*CAP
1 *712:D 0.000115905
2 *596:X 0.000115905
3 *712:D *712:CLK 2.88357e-05
*RES
1 *596:X *712:D 5.045 
*END

*D_NET *70 0.000669388
*CONN
*I *713:D I *D sky130_fd_sc_hd__dfrtp_1
*I *593:X O *D sky130_fd_sc_hd__a41o_1
*CAP
1 *713:D 0.000244365
2 *593:X 0.000244365
3 *713:D *672:A 4.99619e-05
4 *713:D *713:CLK 3.89528e-05
5 *713:D *82:126 9.17431e-05
*RES
1 *593:X *713:D 10.845 
*END

*D_NET *71 0.000982606
*CONN
*I *714:D I *D sky130_fd_sc_hd__dfrtp_1
*I *590:X O *D sky130_fd_sc_hd__clkbuf_1
*CAP
1 *714:D 0.000373572
2 *590:X 0.000373572
3 *714:D *590:A 7.4027e-05
4 *714:D *775:A 0
5 *714:D *144:18 0.000107439
6 *714:RESET_B *714:D 5.39961e-05
*RES
1 *590:X *714:D 13.74 
*END

*D_NET *72 0.00042447
*CONN
*I *715:D I *D sky130_fd_sc_hd__dfrtp_1
*I *585:X O *D sky130_fd_sc_hd__a41o_1
*CAP
1 *715:D 0.000113797
2 *585:X 0.000113797
3 *715:D *127:30 0.000106562
4 *715:RESET_B *715:D 9.03138e-05
*RES
1 *585:X *715:D 9.12 
*END

*D_NET *73 0.000342959
*CONN
*I *716:D I *D sky130_fd_sc_hd__dfxtp_1
*I *676:X O *D sky130_fd_sc_hd__clkbuf_1
*CAP
1 *716:D 0.000102632
2 *676:X 0.000102632
3 *716:D *709:CLK 4.87406e-05
4 *716:D *716:CLK 8.89542e-05
*RES
1 *676:X *716:D 9.15375 
*END

*D_NET *74 0.000384993
*CONN
*I *717:D I *D sky130_fd_sc_hd__dfxtp_1
*I *678:X O *D sky130_fd_sc_hd__clkbuf_1
*CAP
1 *717:D 0.000111718
2 *678:X 0.000111718
3 *717:D *678:A 1.16578e-05
4 *717:D *141:57 0.00011085
5 *717:D *141:70 3.90495e-05
*RES
1 *678:X *717:D 5.27375 
*END

*D_NET *75 0.00134515
*CONN
*I *718:D I *D sky130_fd_sc_hd__dfxtp_1
*I *680:X O *D sky130_fd_sc_hd__clkbuf_1
*CAP
1 *718:D 0.000548651
2 *680:X 0.000548651
3 *718:D *638:A0 0
4 *718:D *716:CLK 0.000106556
5 *718:D *141:14 6.90254e-05
6 *718:D *141:38 7.22689e-05
*RES
1 *680:X *718:D 14.2537 
*END

*D_NET *76 0.000955133
*CONN
*I *719:D I *D sky130_fd_sc_hd__dfxtp_1
*I *682:X O *D sky130_fd_sc_hd__clkbuf_1
*CAP
1 *719:D 0.00034795
2 *682:X 0.00034795
3 *719:D *682:A 7.23533e-05
4 *719:D *689:A1 1.4389e-05
5 *719:D *723:D 5.39718e-05
6 *719:D *141:74 0.00011852
7 rx_data[5] *719:D 0
*RES
1 *682:X *719:D 13.59 
*END

*D_NET *77 0.000501979
*CONN
*I *720:D I *D sky130_fd_sc_hd__dfxtp_1
*I *684:X O *D sky130_fd_sc_hd__clkbuf_1
*CAP
1 *720:D 0.000136058
2 *684:X 0.000136058
3 *720:D *684:A 0
4 *720:D *780:A 0.000143266
5 *720:D *129:80 8.65961e-05
*RES
1 *684:X *720:D 9.76875 
*END

*D_NET *78 0.000335733
*CONN
*I *721:D I *D sky130_fd_sc_hd__dfxtp_1
*I *686:X O *D sky130_fd_sc_hd__clkbuf_1
*CAP
1 *721:D 9.40296e-05
2 *686:X 9.40296e-05
3 *721:D *686:A 0.000147673
*RES
1 *686:X *721:D 4.92875 
*END

*D_NET *79 0.000384708
*CONN
*I *722:D I *D sky130_fd_sc_hd__dfxtp_1
*I *688:X O *D sky130_fd_sc_hd__clkbuf_1
*CAP
1 *722:D 0.000167884
2 *688:X 0.000167884
3 *722:D *722:CLK 4.89395e-05
*RES
1 *688:X *722:D 9.69375 
*END

*D_NET *80 0.000458464
*CONN
*I *723:D I *D sky130_fd_sc_hd__dfxtp_1
*I *690:X O *D sky130_fd_sc_hd__clkbuf_1
*CAP
1 *723:D 0.000157332
2 *690:X 0.000157332
3 *723:D *690:A 0
4 *723:D *722:CLK 5.72004e-05
5 *723:D *141:70 1.43717e-05
6 *723:D *141:74 1.82563e-05
7 *719:D *723:D 5.39718e-05
*RES
1 *690:X *723:D 10.5037 
*END

*D_NET *81 0.00736167
*CONN
*I *579:C I *D sky130_fd_sc_hd__or3_1
*I *588:B I *D sky130_fd_sc_hd__or3_1
*I *594:B I *D sky130_fd_sc_hd__or3_1
*I *614:B I *D sky130_fd_sc_hd__nor2_1
*I *578:A2 I *D sky130_fd_sc_hd__o21ai_1
*I *593:A2 I *D sky130_fd_sc_hd__a41o_1
*I *585:A2 I *D sky130_fd_sc_hd__a41o_1
*I *618:S I *D sky130_fd_sc_hd__mux2_1
*I *600:C I *D sky130_fd_sc_hd__or4_1
*I *582:B I *D sky130_fd_sc_hd__and2_1
*I *576:X O *D sky130_fd_sc_hd__buf_2
*CAP
1 *579:C 3.65832e-05
2 *588:B 8.38932e-05
3 *594:B 9.04534e-05
4 *614:B 3.11395e-05
5 *578:A2 0
6 *593:A2 0.000223577
7 *585:A2 1.0337e-05
8 *618:S 0.000253744
9 *600:C 6.28962e-05
10 *582:B 0.000134815
11 *576:X 0
12 *81:69 0.000455112
13 *81:46 0.000492793
14 *81:33 0.000182145
15 *81:31 0.000180364
16 *81:29 0.000152471
17 *81:12 0.000233868
18 *81:10 0.000202147
19 *81:8 0.000210439
20 *81:4 0.000108122
21 *579:C *576:A 2.08971e-05
22 *579:C *579:A 8.88958e-05
23 *579:C *85:49 8.53011e-05
24 *582:B *612:B_N 8.33066e-06
25 *582:B *615:B 0.000110785
26 *582:B *636:A1 1.21329e-05
27 *582:B *201:42 4.76107e-05
28 *582:B *201:68 2.10929e-05
29 *582:B *202:79 3.29496e-05
30 *585:A2 *585:B1 1.22325e-05
31 *588:B *90:20 0.000178816
32 *588:B *139:10 5.72483e-05
33 *593:A2 *585:A3 7.0687e-05
34 *593:A2 *585:B1 8.66466e-06
35 *593:A2 *598:S 0.000154427
36 *593:A2 *672:A 8.41307e-05
37 *593:A2 *82:101 5.03003e-05
38 *594:B *90:20 4.66108e-05
39 *594:B *201:68 0.000156778
40 *600:C *600:A 3.01547e-05
41 *600:C *202:45 4.66108e-05
42 *614:B *201:50 8.75786e-06
43 *618:S *583:B 8.53113e-06
44 *618:S *597:A 5.0096e-05
45 *618:S *600:B 9.12494e-06
46 *618:S *613:A1 8.49205e-05
47 *618:S *613:A2 4.11002e-05
48 *618:S *613:B1 8.65961e-05
49 *618:S *619:A 0.000137226
50 *618:S *202:34 0.000216722
51 *81:8 *576:A 5.83121e-06
52 *81:8 *85:49 2.03356e-05
53 *81:10 *591:A 0.000110791
54 *81:10 *90:20 0.000151756
55 *81:10 *139:10 4.58262e-06
56 *81:10 *201:68 1.10951e-05
57 *81:12 *579:A 1.69364e-05
58 *81:12 *90:20 2.85623e-05
59 *81:12 *201:68 5.37209e-05
60 *81:12 *202:79 9.23804e-06
61 *81:29 *201:50 9.55262e-06
62 *81:29 *202:77 0.000194295
63 *81:31 *581:A1 0.000235382
64 *81:31 *201:50 1.54665e-05
65 *81:31 *202:60 7.26398e-05
66 *81:31 *202:71 0.000235378
67 *81:31 *202:77 4.77807e-05
68 *81:33 *202:45 3.57349e-05
69 *81:33 *202:60 0.000159179
70 *81:69 *585:A1 1.08105e-05
71 *81:69 *585:A3 4.75959e-05
72 *81:69 *585:A4 8.41307e-05
73 *81:69 *593:A1 0.000175219
74 *81:69 *597:A 0.000134248
75 *81:69 *600:B 6.1197e-05
76 *81:69 *700:CLK 6.21763e-05
77 *81:69 *127:30 7.03276e-05
78 *700:D *81:69 1.7211e-05
79 *700:RESET_B *588:B 1.10951e-05
80 *730:A *81:29 0.000156771
*RES
1 *576:X *81:4 1.6 
2 *81:4 *81:8 2.795 
3 *81:8 *81:10 1.89 
4 *81:10 *81:12 1.38 
5 *81:12 *582:B 6.555 
6 *81:12 *81:29 3.83 
7 *81:29 *81:31 3.21 
8 *81:31 *81:33 1.83 
9 *81:33 *600:C 2.755 
10 *81:33 *81:46 2.36 
11 *81:46 *618:S 9.645 
12 *81:46 *81:69 7.445 
13 *81:69 *585:A2 1.96 
14 *81:69 *593:A2 9.665 
15 *81:31 *578:A2 1.6 
16 *81:29 *614:B 2.215 
17 *81:10 *594:B 5.445 
18 *81:8 *588:B 5.745 
19 *81:4 *579:C 3.01 
*END

*D_NET *82 0.0149205
*CONN
*I *604:A0 I *D sky130_fd_sc_hd__mux2_1
*I *593:A3 I *D sky130_fd_sc_hd__a41o_1
*I *598:A0 I *D sky130_fd_sc_hd__mux2_1
*I *601:A0 I *D sky130_fd_sc_hd__mux2_1
*I *585:A3 I *D sky130_fd_sc_hd__a41o_1
*I *589:A0 I *D sky130_fd_sc_hd__mux2_1
*I *595:A0 I *D sky130_fd_sc_hd__mux2_1
*I *607:A1 I *D sky130_fd_sc_hd__mux2_1
*I *610:B1 I *D sky130_fd_sc_hd__o21a_1
*I *643:B I *D sky130_fd_sc_hd__nor2_1
*I *577:X O *D sky130_fd_sc_hd__buf_2
*CAP
1 *604:A0 0
2 *593:A3 0
3 *598:A0 0
4 *601:A0 0.000363816
5 *585:A3 0.00012362
6 *589:A0 0.000368086
7 *595:A0 0.000320721
8 *607:A1 0
9 *610:B1 1.02931e-05
10 *643:B 0.000340307
11 *577:X 0.000210898
12 *82:126 0.000795144
13 *82:101 0.000709868
14 *82:93 0.000537403
15 *82:83 0.0010153
16 *82:55 0.000778947
17 *82:46 0.000559557
18 *82:18 0.000528497
19 *82:14 0.000887846
20 *82:8 0.00108424
21 *585:A3 *593:A4 6.48137e-05
22 *585:A3 *598:S 1.74869e-05
23 *585:A3 *86:10 2.34331e-05
24 *589:A0 *589:S 0.000315139
25 *589:A0 *607:S 6.06948e-05
26 *589:A0 *775:A 0
27 *589:A0 *144:18 2.66939e-05
28 *595:A0 *595:A1 5.09431e-05
29 *595:A0 *595:S 1.54665e-05
30 *595:A0 *607:S 7.21262e-05
31 *601:A0 *598:A1 5.83121e-06
32 *601:A0 *598:S 1.37328e-05
33 *601:A0 *599:A 0
34 *601:A0 *746:A 0.000116572
35 *601:A0 *753:A 3.26822e-05
36 *601:A0 *778:A 9.97203e-05
37 *601:A0 *782:A 7.1624e-05
38 *610:B1 *580:C 4.77719e-05
39 *610:B1 *712:CLK 4.77719e-05
40 *643:B *610:A1 2.50776e-05
41 *643:B *611:A2 0.000126793
42 *643:B *643:A 0.000162805
43 *643:B *126:30 0
44 *643:B *204:12 4.1652e-06
45 *643:B *206:12 1.05476e-05
46 *82:8 *589:S 0.000307782
47 *82:14 *595:S 0.000122804
48 *82:14 *708:CLK 0.000116853
49 *82:14 *126:30 0
50 *82:18 *610:A1 4.1652e-06
51 *82:18 *610:A2 7.01359e-05
52 *82:18 *204:12 6.30983e-05
53 *82:46 *595:S 0.000446664
54 *82:46 *607:A0 4.77807e-05
55 *82:46 *608:A 8.64599e-05
56 *82:55 *607:A0 6.14541e-05
57 *82:83 *577:A 0
58 *82:83 *604:A1 0.000235568
59 *82:83 *699:D 7.4027e-05
60 *82:83 *708:CLK 4.14369e-05
61 *82:83 *144:35 0.000299817
62 *82:83 *144:39 0.00087559
63 *82:93 *672:A 0.000131804
64 *82:93 *144:39 0.000579417
65 *82:101 *593:A1 1.78887e-05
66 *82:101 *593:A4 5.18317e-06
67 *82:101 *672:A 4.89295e-05
68 *82:101 *127:30 0
69 *82:126 *593:A1 4.77719e-05
70 *82:126 *593:A4 1.75875e-05
71 *82:126 *593:B1 2.52012e-05
72 *82:126 *598:A1 0.000164874
73 *82:126 *598:S 0.000398086
74 *82:126 *672:A 6.67161e-05
75 *82:126 *753:A 0.000135652
76 *593:A2 *585:A3 7.0687e-05
77 *593:A2 *82:101 5.03003e-05
78 *691:SET_B *82:83 0
79 *699:RESET_B *82:14 0
80 *699:RESET_B *82:83 0
81 *708:RESET_B *589:A0 5.3518e-05
82 *713:D *82:126 9.17431e-05
83 *713:RESET_B *82:93 1.91597e-05
84 *724:A *589:A0 0
85 *32:8 *82:83 4.82919e-05
86 *81:69 *585:A3 4.75959e-05
*RES
1 *577:X *82:8 6.465 
2 *82:8 *82:14 6.305 
3 *82:14 *82:18 4.655 
4 *82:18 *643:B 9.135 
5 *82:18 *610:B1 4.05 
6 *82:14 *82:46 8.4 
7 *82:46 *607:A1 1.6 
8 *82:46 *82:55 3.14 
9 *82:55 *595:A0 8.925 
10 *82:55 *589:A0 11.355 
11 *82:8 *82:83 15.305 
12 *82:83 *82:93 11.2 
13 *82:93 *82:101 4.28 
14 *82:101 *585:A3 6.195 
15 *82:101 *82:126 12.275 
16 *82:126 *601:A0 12.995 
17 *82:126 *598:A0 1.6 
18 *82:93 *593:A3 1.6 
19 *82:83 *604:A0 1.6 
*END

*D_NET *83 0.00083248
*CONN
*I *581:A1 I *D sky130_fd_sc_hd__a21oi_1
*I *578:Y O *D sky130_fd_sc_hd__o21ai_1
*CAP
1 *581:A1 0.000232136
2 *578:Y 0.000232136
3 *581:A1 *603:A 0.000124496
4 *581:A1 *202:71 8.33066e-06
5 *81:31 *581:A1 0.000235382
*RES
1 *578:Y *581:A1 11.01 
*END

*D_NET *84 0.00213688
*CONN
*I *606:B I *D sky130_fd_sc_hd__nor2_1
*I *581:A2 I *D sky130_fd_sc_hd__a21oi_1
*I *579:X O *D sky130_fd_sc_hd__or3_1
*CAP
1 *606:B 0.000273075
2 *581:A2 0.000354805
3 *579:X 0
4 *84:4 0.00062788
5 *581:A2 *591:A 8.41384e-05
6 *581:A2 *594:C 8.35118e-05
7 *581:A2 *595:S 3.62258e-06
8 *581:A2 *597:C 2.49909e-05
9 *581:A2 *656:A 8.23457e-05
10 *581:A2 *85:49 8.35157e-05
11 *581:A2 *85:53 3.5678e-06
12 *581:A2 *90:20 7.18107e-06
13 *581:A2 *91:27 4.83032e-05
14 *581:A2 *94:6 2.69217e-05
15 *581:A2 *201:68 4.89049e-05
16 *606:B *586:A 0.000141775
17 *606:B *85:16 1.77945e-05
18 *606:B *85:49 0.000176769
19 *700:RESET_B *581:A2 4.77769e-05
*RES
1 *579:X *84:4 1.6 
2 *84:4 *581:A2 12.02 
3 *84:4 *606:B 6.565 
*END

*D_NET *85 0.00694141
*CONN
*I *603:D I *D sky130_fd_sc_hd__or4_1
*I *581:B1 I *D sky130_fd_sc_hd__a21oi_1
*I *600:D I *D sky130_fd_sc_hd__or4_1
*I *584:A1 I *D sky130_fd_sc_hd__o21a_1
*I *597:D I *D sky130_fd_sc_hd__or4_1
*I *606:A I *D sky130_fd_sc_hd__nor2_1
*I *580:X O *D sky130_fd_sc_hd__or3_2
*CAP
1 *603:D 0.000168732
2 *581:B1 0
3 *600:D 0
4 *584:A1 0.000148807
5 *597:D 3.18487e-05
6 *606:A 0
7 *580:X 0.000374889
8 *85:70 0.000435056
9 *85:55 0.000392332
10 *85:53 0.000126148
11 *85:49 0.000761658
12 *85:16 0.000915902
13 *584:A1 *584:A2 5.83121e-06
14 *584:A1 *600:A 0.000122797
15 *584:A1 *601:S 5.69152e-05
16 *597:D *597:C 2.49909e-05
17 *603:D *592:B1 8.53113e-06
18 *603:D *603:A 0.000248281
19 *603:D *675:A1 0
20 *85:16 *607:S 0.000457594
21 *85:16 *609:A 2.23253e-05
22 *85:16 *610:A2 2.30184e-05
23 *85:16 *655:A 0.000438405
24 *85:16 *712:CLK 7.11301e-05
25 *85:49 *576:A 4.77769e-05
26 *85:49 *579:A 1.32026e-05
27 *85:49 *586:A 0.000203938
28 *85:49 *597:C 2.15454e-05
29 *85:49 *607:S 1.53876e-05
30 *85:49 *655:A 7.5386e-05
31 *85:49 *94:23 0.000137461
32 *85:49 *126:26 0.000233626
33 *85:49 *139:10 0.00013374
34 *85:49 *201:91 0.000214535
35 *85:53 *597:C 1.54665e-05
36 *85:55 *597:C 8.74126e-05
37 *85:70 *578:A1 8.35118e-05
38 *85:70 *600:A 1.08758e-05
39 *85:70 *619:A 0.000121659
40 *85:70 *675:A1 0.000234487
41 *85:70 *202:45 1.33285e-05
42 *85:70 *202:60 1.43622e-05
43 *579:C *85:49 8.53011e-05
44 *581:A2 *85:49 8.35157e-05
45 *581:A2 *85:53 3.5678e-06
46 *606:B *85:16 1.77945e-05
47 *606:B *85:49 0.000176769
48 *700:RESET_B *85:49 4.1235e-05
49 *81:8 *85:49 2.03356e-05
*RES
1 *580:X *85:16 14.51 
2 *85:16 *606:A 1.6 
3 *85:16 *85:49 18.415 
4 *85:49 *85:53 0.81 
5 *85:53 *85:55 1.485 
6 *85:55 *597:D 2.05 
7 *85:55 *85:70 9.43 
8 *85:70 *584:A1 4.24 
9 *85:70 *600:D 1.6 
10 *85:53 *581:B1 1.6 
11 *85:49 *603:D 9.275 
*END

*D_NET *86 0.00212135
*CONN
*I *593:A4 I *D sky130_fd_sc_hd__a41o_1
*I *585:A4 I *D sky130_fd_sc_hd__a41o_1
*I *581:Y O *D sky130_fd_sc_hd__a21oi_1
*CAP
1 *593:A4 0.000112429
2 *585:A4 1.89564e-05
3 *581:Y 0.000246945
4 *86:10 0.00037833
5 *585:A4 *700:CLK 8.41307e-05
6 *593:A4 *592:A1 1.15429e-05
7 *593:A4 *593:A1 0.000132462
8 *593:A4 *593:B1 2.68464e-05
9 *86:10 *593:A1 0.000193495
10 *86:10 *597:A 2.49909e-05
11 *86:10 *597:C 0.000232978
12 *86:10 *746:A 5.83121e-06
13 *86:10 *90:20 0.000196077
14 *86:10 *90:24 0.000228863
15 *86:10 *127:30 3.23284e-05
16 *585:A3 *593:A4 6.48137e-05
17 *585:A3 *86:10 2.34331e-05
18 *81:69 *585:A4 8.41307e-05
19 *82:101 *593:A4 5.18317e-06
20 *82:126 *593:A4 1.75875e-05
*RES
1 *581:Y *86:10 10.245 
2 *86:10 *585:A4 4.395 
3 *86:10 *593:A4 6.405 
*END

*D_NET *87 0.00515935
*CONN
*I *615:A I *D sky130_fd_sc_hd__nor2_1
*I *636:A3 I *D sky130_fd_sc_hd__a32o_1
*I *613:A2 I *D sky130_fd_sc_hd__a22o_1
*I *583:B I *D sky130_fd_sc_hd__nand2_1
*I *582:X O *D sky130_fd_sc_hd__and2_1
*CAP
1 *615:A 0.000102251
2 *636:A3 0.000157103
3 *613:A2 0.000329246
4 *583:B 0.000238198
5 *582:X 0
6 *87:16 0.000699775
7 *87:12 0.000611396
8 *87:4 0.000424213
9 *583:B *616:B1_N 0.00022753
10 *583:B *633:A1 7.23533e-05
11 *583:B *107:10 1.07797e-05
12 *583:B *202:12 5.53249e-06
13 *583:B *202:21 0.00019194
14 *583:B *202:34 5.18254e-05
15 *613:A2 *613:A1 0.000399804
16 *613:A2 *619:A 8.33066e-06
17 *613:A2 *107:10 2.14547e-05
18 *615:A *615:B 4.77807e-05
19 *615:A *727:A 4.42148e-05
20 *636:A3 *612:B_N 6.90876e-05
21 *636:A3 *636:A1 0.000180878
22 *636:A3 *636:A2 0.0002206
23 *636:A3 *205:66 7.49327e-05
24 *87:12 *582:A 4.90291e-05
25 *87:12 *612:A 0
26 *87:12 *612:B_N 2.15454e-05
27 *87:12 *615:B 1.42598e-05
28 *87:12 *727:A 1.90907e-05
29 *87:12 *201:29 6.20478e-05
30 *87:16 *612:A 0.000198939
31 *87:16 *613:A1 0.000230435
32 *87:16 *613:B1 8.49205e-05
33 *87:16 *618:A1 5.68717e-05
34 *87:16 *205:66 4.99619e-05
35 *618:S *583:B 8.53113e-06
36 *618:S *613:A2 4.11002e-05
37 *702:D *613:A2 9.60582e-07
38 *730:A *87:12 8.41384e-05
39 *738:A *636:A3 4.82919e-05
*RES
1 *582:X *87:4 1.6 
2 *87:4 *87:12 8.59 
3 *87:12 *87:16 5.9 
4 *87:16 *583:B 10.38 
5 *87:16 *613:A2 8.64 
6 *87:12 *636:A3 6.55 
7 *87:4 *615:A 3.715 
*END

*D_NET *88 0.00315854
*CONN
*I *616:A2 I *D sky130_fd_sc_hd__a21boi_1
*I *584:A2 I *D sky130_fd_sc_hd__o21a_1
*I *633:A2 I *D sky130_fd_sc_hd__a21o_1
*I *583:Y O *D sky130_fd_sc_hd__nand2_1
*CAP
1 *616:A2 6.99521e-05
2 *584:A2 0.000470203
3 *633:A2 0.000200962
4 *583:Y 0
5 *88:10 0.000971524
6 *88:4 0.000370311
7 *584:A2 *585:B1 9.29903e-05
8 *584:A2 *601:S 1.19928e-05
9 *584:A2 *707:D 9.79172e-05
10 *633:A2 *633:B1 2.54431e-05
11 *633:A2 *707:D 0.000120219
12 *88:10 *692:D 3.62197e-05
13 *88:10 *702:CLK 8.64421e-05
14 *88:10 *202:12 0.000136853
15 *584:A1 *584:A2 5.83121e-06
16 *702:D *584:A2 0.000127373
17 *702:D *633:A2 1.16588e-05
18 *702:D *88:10 0.000322644
*RES
1 *583:Y *88:4 1.6 
2 *88:4 *88:10 8.705 
3 *88:10 *633:A2 10.57 
4 *88:10 *584:A2 10.785 
5 *88:4 *616:A2 2.755 
*END

*D_NET *89 0.00130415
*CONN
*I *585:B1 I *D sky130_fd_sc_hd__a41o_1
*I *584:X O *D sky130_fd_sc_hd__o21a_1
*CAP
1 *585:B1 0.00041758
2 *584:X 0.00041758
3 *585:B1 *584:B1 7.1624e-05
4 *585:B1 *598:S 6.90254e-05
5 *585:B1 *601:S 0.000160319
6 *585:B1 *700:CLK 1.79098e-05
7 *585:B1 *127:30 3.6227e-05
8 *584:A2 *585:B1 9.29903e-05
9 *585:A2 *585:B1 1.22325e-05
10 *593:A2 *585:B1 8.66466e-06
*RES
1 *584:X *585:B1 13.935 
*END

*D_NET *90 0.00515643
*CONN
*I *588:A I *D sky130_fd_sc_hd__or3_1
*I *597:B I *D sky130_fd_sc_hd__or4_1
*I *593:A1 I *D sky130_fd_sc_hd__a41o_1
*I *600:B I *D sky130_fd_sc_hd__or4_1
*I *586:Y O *D sky130_fd_sc_hd__inv_2
*CAP
1 *588:A 0
2 *597:B 0
3 *593:A1 0.000270559
4 *600:B 4.0399e-05
5 *586:Y 0.000174028
6 *90:24 0.000479854
7 *90:20 0.000721087
8 *90:12 0.000726219
9 *593:A1 *593:B1 8.46717e-05
10 *593:A1 *127:30 0.000117302
11 *90:12 *589:S 0.000237243
12 *90:12 *656:A 4.35432e-05
13 *90:12 *91:27 0.000199833
14 *90:12 *126:18 4.14369e-05
15 *90:12 *126:26 7.23533e-05
16 *90:20 *579:A 3.1191e-05
17 *90:20 *591:A 1.19928e-05
18 *90:20 *597:C 8.25446e-05
19 *90:20 *656:A 0.000283767
20 *90:20 *91:27 0
21 *90:20 *94:6 2.21074e-05
22 *90:20 *139:10 0
23 *90:20 *201:68 4.12775e-05
24 *581:A2 *90:20 7.18107e-06
25 *588:B *90:20 0.000178816
26 *593:A4 *593:A1 0.000132462
27 *594:B *90:20 4.66108e-05
28 *618:S *600:B 9.12494e-06
29 *81:10 *90:20 0.000151756
30 *81:12 *90:20 2.85623e-05
31 *81:69 *593:A1 0.000175219
32 *81:69 *600:B 6.1197e-05
33 *82:101 *593:A1 1.78887e-05
34 *82:126 *593:A1 4.77719e-05
35 *86:10 *593:A1 0.000193495
36 *86:10 *90:20 0.000196077
37 *86:10 *90:24 0.000228863
*RES
1 *586:Y *90:12 10.19 
2 *90:12 *90:20 13.975 
3 *90:20 *90:24 4.175 
4 *90:24 *600:B 4.47 
5 *90:24 *593:A1 9.885 
6 *90:20 *597:B 1.6 
7 *90:12 *588:A 1.6 
*END

*D_NET *91 0.00385676
*CONN
*I *592:A3 I *D sky130_fd_sc_hd__o31a_1
*I *588:C I *D sky130_fd_sc_hd__or3_1
*I *594:C I *D sky130_fd_sc_hd__or3_1
*I *587:X O *D sky130_fd_sc_hd__or4b_1
*CAP
1 *592:A3 0.000347487
2 *588:C 0
3 *594:C 4.81536e-05
4 *587:X 0.00042606
5 *91:27 0.000711027
6 *91:10 0.000837754
7 *592:A3 *592:A1 5.4155e-06
8 *592:A3 *592:A2 5.55174e-05
9 *592:A3 *592:B1 0.000199833
10 *592:A3 *603:A 8.65961e-05
11 *592:A3 *604:S 4.82919e-05
12 *592:A3 *672:A 0
13 *594:C *201:68 4.77769e-05
14 *91:10 *579:A 3.52569e-05
15 *91:10 *587:D_N 7.47262e-06
16 *91:10 *201:72 8.33066e-06
17 *91:10 *202:79 2.69443e-06
18 *91:27 *126:26 0
19 *91:27 *139:10 0
20 *91:27 *198:16 0
21 *91:27 *201:72 0.000123194
22 *91:27 *201:89 0.000115039
23 *581:A2 *594:C 8.35118e-05
24 *581:A2 *91:27 4.83032e-05
25 *611:B1 *91:10 0.000160338
26 *730:A *91:10 2.88357e-05
27 *24:6 *91:10 0.000230041
28 *90:12 *91:27 0.000199833
29 *90:20 *91:27 0
*RES
1 *587:X *91:10 9.57 
2 *91:10 *594:C 4.755 
3 *91:10 *91:27 8.615 
4 *91:27 *588:C 1.6 
5 *91:27 *592:A3 7.6 
*END

*D_NET *92 0.00435726
*CONN
*I *589:S I *D sky130_fd_sc_hd__mux2_1
*I *588:X O *D sky130_fd_sc_hd__or3_1
*CAP
1 *589:S 0.00121179
2 *588:X 0.00121179
3 *589:S *589:A1 4.66742e-05
4 *589:S *637:B 1.33293e-05
5 *589:S *656:A 0.000272978
6 *589:S *665:A 0.000160491
7 *589:S *669:A 6.28765e-05
8 *589:S *699:D 2.86975e-05
9 *589:S *775:A 0
10 *589:S *142:62 0.000309012
11 *589:S *144:18 7.26551e-05
12 *589:S *156:8 3.45679e-05
13 *589:A0 *589:S 0.000315139
14 *708:RESET_B *589:S 7.22354e-05
15 *82:8 *589:S 0.000307782
16 *90:12 *589:S 0.000237243
*RES
1 *588:X *589:S 31.485 
*END

*D_NET *93 0.000500426
*CONN
*I *590:A I *D sky130_fd_sc_hd__clkbuf_1
*I *589:X O *D sky130_fd_sc_hd__mux2_1
*CAP
1 *590:A 0.000100083
2 *589:X 0.000100083
3 *590:A *669:A 8.53113e-06
4 *590:A *775:A 0
5 *590:A *144:18 0.000141606
6 *590:A *155:18 7.60965e-05
7 *714:D *590:A 7.4027e-05
*RES
1 *589:X *590:A 9.975 
*END

*D_NET *94 0.00251344
*CONN
*I *603:C I *D sky130_fd_sc_hd__or4_1
*I *592:A2 I *D sky130_fd_sc_hd__o31a_1
*I *597:C I *D sky130_fd_sc_hd__or4_1
*I *591:Y O *D sky130_fd_sc_hd__inv_2
*CAP
1 *603:C 0
2 *592:A2 7.72895e-05
3 *597:C 0.000105302
4 *591:Y 1.03091e-05
5 *94:23 0.000220144
6 *94:6 0.000258466
7 *592:A2 *592:A1 0.000387003
8 *592:A2 *592:B1 0.000201508
9 *592:A2 *603:A 4.82919e-05
10 *94:23 *592:A1 3.26889e-05
11 *94:23 *603:A 0.000275302
12 *94:23 *139:10 9.28441e-05
13 *94:23 *201:110 7.23602e-05
14 *581:A2 *597:C 2.49909e-05
15 *581:A2 *94:6 2.69217e-05
16 *592:A3 *592:A2 5.55174e-05
17 *597:D *597:C 2.49909e-05
18 *85:49 *597:C 2.15454e-05
19 *85:49 *94:23 0.000137461
20 *85:53 *597:C 1.54665e-05
21 *85:55 *597:C 8.74126e-05
22 *86:10 *597:C 0.000232978
23 *90:20 *597:C 8.25446e-05
24 *90:20 *94:6 2.21074e-05
*RES
1 *591:Y *94:6 2.05 
2 *94:6 *597:C 5.155 
3 *94:6 *94:23 8.74 
4 *94:23 *592:A2 5.155 
5 *94:23 *603:C 1.6 
*END

*D_NET *95 0.000496548
*CONN
*I *593:B1 I *D sky130_fd_sc_hd__a41o_1
*I *592:X O *D sky130_fd_sc_hd__o31a_1
*CAP
1 *593:B1 6.24756e-05
2 *592:X 6.24756e-05
3 *593:B1 *672:A 0.000234878
4 *593:A1 *593:B1 8.46717e-05
5 *593:A4 *593:B1 2.68464e-05
6 *82:126 *593:B1 2.52012e-05
*RES
1 *592:X *593:B1 5.375 
*END

*D_NET *96 0.00369411
*CONN
*I *595:S I *D sky130_fd_sc_hd__mux2_1
*I *594:X O *D sky130_fd_sc_hd__or3_1
*CAP
1 *595:S 0.00130338
2 *594:X 0.00130338
3 *595:S *595:A1 4.89395e-05
4 *595:S *596:A 0.000110759
5 *595:S *610:A2 8.90609e-05
6 *595:S *691:CLK 0.000161222
7 *595:S *731:A 8.88041e-05
8 *581:A2 *595:S 3.62258e-06
9 *595:A0 *595:S 1.54665e-05
10 *82:14 *595:S 0.000122804
11 *82:46 *595:S 0.000446664
*RES
1 *594:X *595:S 29.04 
*END

*D_NET *97 0.000483679
*CONN
*I *596:A I *D sky130_fd_sc_hd__clkbuf_1
*I *595:X O *D sky130_fd_sc_hd__mux2_1
*CAP
1 *596:A 0.00018646
2 *595:X 0.00018646
3 *595:S *596:A 0.000110759
*RES
1 *595:X *596:A 10.065 
*END

*D_NET *98 0.00275632
*CONN
*I *598:S I *D sky130_fd_sc_hd__mux2_1
*I *597:X O *D sky130_fd_sc_hd__or4_1
*CAP
1 *598:S 0.000647358
2 *597:X 0.000647358
3 *598:S *585:A1 7.40754e-05
4 *598:S *598:A1 2.16833e-05
5 *598:S *753:A 0.000276441
6 *598:S *127:30 0.00027624
7 *585:A3 *598:S 1.74869e-05
8 *585:B1 *598:S 6.90254e-05
9 *593:A2 *598:S 0.000154427
10 *601:A0 *598:S 1.37328e-05
11 *715:RESET_B *598:S 0.000160412
12 *82:126 *598:S 0.000398086
*RES
1 *597:X *598:S 19.905 
*END

*D_NET *99 0.000491691
*CONN
*I *599:A I *D sky130_fd_sc_hd__clkbuf_1
*I *598:X O *D sky130_fd_sc_hd__mux2_1
*CAP
1 *599:A 0.000245845
2 *598:X 0.000245845
3 *601:A0 *599:A 0
*RES
1 *598:X *599:A 11.175 
*END

*D_NET *100 0.00122224
*CONN
*I *601:S I *D sky130_fd_sc_hd__mux2_1
*I *600:X O *D sky130_fd_sc_hd__or4_1
*CAP
1 *601:S 0.000418422
2 *600:X 0.000418422
3 *601:S *584:B1 4.89362e-05
4 *601:S *601:A1 0.000107235
5 *584:A1 *601:S 5.69152e-05
6 *584:A2 *601:S 1.19928e-05
7 *585:B1 *601:S 0.000160319
*RES
1 *600:X *601:S 10.94 
*END

*D_NET *101 0.000297979
*CONN
*I *602:A I *D sky130_fd_sc_hd__clkbuf_1
*I *601:X O *D sky130_fd_sc_hd__mux2_1
*CAP
1 *602:A 0.000136025
2 *601:X 0.000136025
3 *602:A *782:A 2.59285e-05
*RES
1 *601:X *602:A 9.48 
*END

*D_NET *102 0.000416058
*CONN
*I *604:S I *D sky130_fd_sc_hd__mux2_1
*I *603:X O *D sky130_fd_sc_hd__or4_1
*CAP
1 *604:S 0.000116625
2 *603:X 0.000116625
3 *604:S *604:A1 0
4 *604:S *139:10 0.000134516
5 *592:A3 *604:S 4.82919e-05
*RES
1 *603:X *604:S 9.285 
*END

*D_NET *103 0.000988149
*CONN
*I *605:A I *D sky130_fd_sc_hd__clkbuf_1
*I *604:X O *D sky130_fd_sc_hd__mux2_1
*CAP
1 *605:A 0.000290893
2 *604:X 0.000290893
3 *605:A *675:A1 0
4 *605:A *127:96 0.000140912
5 *605:A *129:10 0.000162332
6 *605:A *129:40 3.09164e-05
7 *605:A *139:10 0
8 *605:A *139:26 0
9 *605:A *144:39 2.11084e-05
10 *709:RESET_B *605:A 5.10957e-05
*RES
1 *604:X *605:A 13.365 
*END

*D_NET *104 0.00285365
*CONN
*I *607:S I *D sky130_fd_sc_hd__mux2_1
*I *606:Y O *D sky130_fd_sc_hd__nor2_1
*CAP
1 *607:S 0.000944297
2 *606:Y 0.000944297
3 *607:S *655:A 1.91681e-05
4 *607:S *708:CLK 0.00015601
5 *607:S *784:A 0.000137782
6 *589:A0 *607:S 6.06948e-05
7 *595:A0 *607:S 7.21262e-05
8 *724:A *607:S 4.62928e-05
9 *85:16 *607:S 0.000457594
10 *85:49 *607:S 1.53876e-05
*RES
1 *606:Y *607:S 20.67 
*END

*D_NET *105 0.00073312
*CONN
*I *608:A I *D sky130_fd_sc_hd__clkbuf_1
*I *607:X O *D sky130_fd_sc_hd__mux2_1
*CAP
1 *608:A 0.000218664
2 *607:X 0.000218664
3 *608:A *784:A 0
4 *708:D *608:A 3.86607e-05
5 *724:A *608:A 0.000170671
6 *82:46 *608:A 8.64599e-05
*RES
1 *607:X *608:A 11.67 
*END

*D_NET *106 0.00288325
*CONN
*I *611:A2 I *D sky130_fd_sc_hd__o22a_1
*I *643:A I *D sky130_fd_sc_hd__nor2_1
*I *609:Y O *D sky130_fd_sc_hd__inv_2
*CAP
1 *611:A2 0.000345781
2 *643:A 0.000163076
3 *609:Y 0.000152953
4 *106:8 0.00066181
5 *611:A2 *587:C 8.52845e-05
6 *611:A2 *587:D_N 0.000485537
7 *611:A2 *712:CLK 1.43253e-05
8 *611:A2 *207:34 0.000302133
9 *611:A2 *207:49 4.76556e-05
10 *643:A *206:16 0
11 *106:8 *580:A 0.00026199
12 *106:8 *207:49 4.66108e-05
13 *611:B1 *611:A2 2.64923e-05
14 *643:B *611:A2 0.000126793
15 *643:B *643:A 0.000162805
*RES
1 *609:Y *106:8 6.81 
2 *106:8 *643:A 6.75 
3 *106:8 *611:A2 11.595 
*END

*D_NET *107 0.00268594
*CONN
*I *613:B1 I *D sky130_fd_sc_hd__a22o_1
*I *616:B1_N I *D sky130_fd_sc_hd__a21boi_1
*I *612:X O *D sky130_fd_sc_hd__or2b_1
*CAP
1 *613:B1 0.000127104
2 *616:B1_N 0.000240668
3 *612:X 9.19603e-05
4 *107:10 0.000459733
5 *613:B1 *613:A1 0.000206285
6 *613:B1 *613:B2 8.40425e-05
7 *613:B1 *618:A1 0.000160635
8 *616:B1_N *616:A1 1.91597e-05
9 *616:B1_N *675:A1 0.00053179
10 *616:B1_N *110:12 8.65961e-05
11 *616:B1_N *202:12 0
12 *107:10 *619:A 6.90254e-05
13 *107:10 *675:A1 0.000131045
14 *583:B *616:B1_N 0.00022753
15 *583:B *107:10 1.07797e-05
16 *613:A2 *107:10 2.14547e-05
17 *618:S *613:B1 8.65961e-05
18 *730:A *107:10 4.66108e-05
19 *87:16 *613:B1 8.49205e-05
*RES
1 *612:X *107:10 5.685 
2 *107:10 *616:B1_N 10.965 
3 *107:10 *613:B1 7.98 
*END

*D_NET *108 0.0011589
*CONN
*I *615:B I *D sky130_fd_sc_hd__nor2_1
*I *614:Y O *D sky130_fd_sc_hd__nor2_1
*CAP
1 *615:B 0.000290689
2 *614:Y 0.000290689
3 *615:B *636:A1 0.000109489
4 *615:B *727:A 8.35157e-05
5 *615:B *201:50 0.000156767
6 *582:B *615:B 0.000110785
7 *615:A *615:B 4.77807e-05
8 *730:A *615:B 5.49293e-05
9 *87:12 *615:B 1.42598e-05
*RES
1 *614:Y *615:B 12.24 
*END

*D_NET *109 0.00126992
*CONN
*I *617:A2 I *D sky130_fd_sc_hd__a22o_1
*I *615:Y O *D sky130_fd_sc_hd__nor2_1
*CAP
1 *617:A2 0.000474261
2 *615:Y 0.000474261
3 *617:A2 *617:B2 4.82863e-05
4 *617:A2 *633:B1 7.68414e-06
5 *617:A2 *636:A1 8.96077e-05
6 *617:A2 *694:CLK 1.5186e-05
7 *617:A2 *694:D 0.000160635
8 *617:A2 *201:29 0
9 *617:A2 *207:27 0
*RES
1 *615:Y *617:A2 14.04 
*END

*D_NET *110 0.00257164
*CONN
*I *618:A1 I *D sky130_fd_sc_hd__mux2_1
*I *617:B1 I *D sky130_fd_sc_hd__a22o_1
*I *616:Y O *D sky130_fd_sc_hd__a21boi_1
*CAP
1 *618:A1 0.000190703
2 *617:B1 9.71884e-06
3 *616:Y 0.000268501
4 *110:12 0.000468923
5 *617:B1 *617:A1 4.82919e-05
6 *617:B1 *617:B2 4.82919e-05
7 *618:A1 *612:A 0.000160635
8 *618:A1 *617:A1 7.21296e-06
9 *618:A1 *201:29 0
10 *618:A1 *205:21 0.000106655
11 *618:A1 *205:23 0.000342784
12 *618:A1 *205:51 4.66108e-05
13 *110:12 *616:A1 0.000407631
14 *110:12 *201:12 0
15 *110:12 *205:21 0.000138551
16 *613:B1 *618:A1 0.000160635
17 *616:B1_N *110:12 8.65961e-05
18 *692:RESET_B *110:12 2.30292e-05
19 *701:D *110:12 0
20 *87:16 *618:A1 5.68717e-05
*RES
1 *616:Y *110:12 10.065 
2 *110:12 *617:B1 4.05 
3 *110:12 *618:A1 9.135 
*END

*D_NET *111 0.00109308
*CONN
*I *619:A I *D sky130_fd_sc_hd__clkbuf_1
*I *618:X O *D sky130_fd_sc_hd__mux2_1
*CAP
1 *619:A 0.000219943
2 *618:X 0.000219943
3 *619:A *613:A1 8.40213e-05
4 *619:A *675:A1 0.000111272
5 *619:A *202:45 4.77807e-05
6 *619:A *202:60 7.38779e-05
7 *613:A2 *619:A 8.33066e-06
8 *618:S *619:A 0.000137226
9 *85:70 *619:A 0.000121659
10 *107:10 *619:A 6.90254e-05
*RES
1 *618:X *619:A 12.555 
*END

*D_NET *112 0.00237139
*CONN
*I *637:A I *D sky130_fd_sc_hd__nor2_1
*I *621:A2 I *D sky130_fd_sc_hd__a21o_1
*I *620:Y O *D sky130_fd_sc_hd__inv_2
*CAP
1 *637:A 0.0004724
2 *621:A2 6.88263e-05
3 *620:Y 5.33636e-05
4 *112:6 0.000594589
5 *621:A2 *620:A 0.000121261
6 *621:A2 *621:A1 0.000195035
7 *621:A2 *631:A 3.18367e-05
8 *637:A *589:A1 2.8185e-05
9 *637:A *637:B 0.000602944
10 *637:A *673:B 2.19562e-06
11 *637:A *144:18 0.000170716
12 *112:6 *620:A 3.00381e-05
*RES
1 *620:Y *112:6 2.395 
2 *112:6 *621:A2 4.315 
3 *112:6 *637:A 14.21 
*END

*D_NET *113 0.00352237
*CONN
*I *625:B1_N I *D sky130_fd_sc_hd__a21bo_1
*I *623:B1 I *D sky130_fd_sc_hd__a32o_1
*I *622:X O *D sky130_fd_sc_hd__or2b_1
*CAP
1 *625:B1_N 5.21524e-05
2 *623:B1 0.000892651
3 *622:X 0.000613866
4 *113:12 0.00155867
5 *623:B1 *745:A 4.82172e-06
6 *623:B1 *143:45 1.93834e-05
7 *623:B1 *198:16 9.73145e-05
8 *623:B1 *208:52 1.19928e-05
9 *623:B1 *208:62 3.89602e-05
10 *623:B1 *209:27 3.59531e-06
11 *623:B1 *220:41 0.000198051
12 *625:B1_N *208:14 0
13 *625:B1_N *220:12 3.09164e-05
14 *625:B1_N *220:32 0
*RES
1 *622:X *113:12 5.47757 
2 *113:12 *623:B1 8.672 
3 *113:12 *625:B1_N 4.8425 
*END

*D_NET *114 0.00236314
*CONN
*I *634:A2 I *D sky130_fd_sc_hd__a21o_1
*I *625:A2 I *D sky130_fd_sc_hd__a21bo_1
*I *624:Y O *D sky130_fd_sc_hd__nand3_1
*CAP
1 *634:A2 0.000606263
2 *625:A2 0.000112492
3 *624:Y 8.7537e-05
4 *114:6 0.000806293
5 *625:A2 *628:A2 4.77719e-05
6 *625:A2 *208:32 3.89151e-05
7 *625:A2 *220:32 6.34399e-05
8 *634:A2 *634:B1 0
9 *634:A2 *126:121 1.03323e-05
10 *634:A2 *208:20 0.000489483
11 *114:6 *624:B 5.83121e-06
12 *114:6 *126:121 8.70433e-06
13 *114:6 *208:20 8.60799e-05
*RES
1 *624:Y *114:6 2.74 
2 *114:6 *625:A2 7.79 
3 *114:6 *634:A2 13.64 
*END

*D_NET *115 0.00279512
*CONN
*I *630:A2 I *D sky130_fd_sc_hd__a21oi_1
*I *627:A2 I *D sky130_fd_sc_hd__a21oi_1
*I *628:A1 I *D sky130_fd_sc_hd__a21oi_1
*I *625:X O *D sky130_fd_sc_hd__a21bo_1
*CAP
1 *630:A2 0.000266514
2 *627:A2 0.000252021
3 *628:A1 9.22045e-05
4 *625:X 0.000189305
5 *115:12 0.000628047
6 *115:8 0.00073964
7 *627:A2 *627:A1 4.82919e-05
8 *627:A2 *627:B1 3.26889e-05
9 *627:A2 *628:B1 0
10 *627:A2 *652:A 1.65432e-05
11 *627:A2 *208:10 3.31204e-05
12 *627:A2 *208:14 9.50342e-06
13 *628:A1 *627:B1 3.67779e-05
14 *628:A1 *628:A2 9.50342e-06
15 *628:A1 *630:B1 1.13346e-05
16 *630:A2 *630:A1 3.6227e-05
17 *630:A2 *630:B1 4.82863e-05
18 *630:A2 *683:A1 1.83756e-05
19 *630:A2 *695:D 0.000113704
20 *630:A2 *745:A 0
21 *115:8 *630:B1 0
22 *115:8 *745:A 0
23 *695:RESET_B *627:A2 0.000151448
24 *695:RESET_B *628:A1 4.11194e-05
25 *696:D *627:A2 0
26 *696:RESET_B *627:A2 2.04648e-05
*RES
1 *625:X *115:8 6.51 
2 *115:8 *115:12 4.865 
3 *115:12 *628:A1 7.43 
4 *115:12 *627:A2 9.815 
5 *115:8 *630:A2 8.745 
*END

*D_NET *116 0.00098597
*CONN
*I *628:A2 I *D sky130_fd_sc_hd__a21oi_1
*I *626:X O *D sky130_fd_sc_hd__a21bo_1
*CAP
1 *628:A2 0.00035396
2 *626:X 0.00035396
3 *628:A2 *630:B1 7.88846e-05
4 *628:A2 *696:CLK 7.47215e-05
5 *628:A2 *208:32 5.61682e-06
6 *628:A2 *220:14 4.57056e-05
7 *628:A2 *220:32 1.58462e-05
8 *625:A2 *628:A2 4.77719e-05
9 *628:A1 *628:A2 9.50342e-06
10 *695:RESET_B *628:A2 0
*RES
1 *626:X *628:A2 12.51 
*END

*D_NET *117 0.000175998
*CONN
*I *628:B1 I *D sky130_fd_sc_hd__a21oi_1
*I *627:Y O *D sky130_fd_sc_hd__a21oi_1
*CAP
1 *628:B1 3.29424e-05
2 *627:Y 3.29424e-05
3 *628:B1 *627:B1 1.83756e-05
4 *628:B1 *652:A 1.37328e-05
5 *627:A2 *628:B1 0
6 *696:D *628:B1 5.74987e-05
7 *696:RESET_B *628:B1 2.05056e-05
*RES
1 *627:Y *628:B1 4.37 
*END

*D_NET *118 0.00206743
*CONN
*I *630:B1 I *D sky130_fd_sc_hd__a21oi_1
*I *629:Y O *D sky130_fd_sc_hd__nor2_1
*CAP
1 *630:B1 0.000708673
2 *629:Y 0.000708673
3 *630:B1 *627:B1 0.000242308
4 *630:B1 *683:A1 0.000100891
5 *630:B1 *696:CLK 7.01359e-05
6 *630:B1 *208:14 0
7 *630:B1 *220:14 8.35068e-05
8 *630:B1 *220:81 1.47347e-05
9 *628:A1 *630:B1 1.13346e-05
10 *628:A2 *630:B1 7.88846e-05
11 *630:A2 *630:B1 4.82863e-05
12 *115:8 *630:B1 0
*RES
1 *629:Y *630:B1 19.755 
*END

*D_NET *119 0.00238556
*CONN
*I *637:B I *D sky130_fd_sc_hd__nor2_1
*I *632:A2 I *D sky130_fd_sc_hd__a21o_1
*I *631:Y O *D sky130_fd_sc_hd__inv_2
*CAP
1 *637:B 0.000329988
2 *632:A2 0.000241314
3 *631:Y 0
4 *119:4 0.000571301
5 *632:A2 *620:A 0
6 *632:A2 *621:B1 0
7 *632:A2 *665:A 0.000336713
8 *632:A2 *673:A 6.59822e-05
9 *632:A2 *127:96 7.13156e-05
10 *632:A2 *127:102 8.65961e-05
11 *632:A2 *219:12 1.07797e-05
12 *637:B *589:A1 7.00889e-06
13 *637:B *631:A 4.82863e-05
14 *637:B *665:A 0
15 *637:B *714:CLK 0
16 *637:B *219:12 0
17 *589:S *637:B 1.33293e-05
18 *637:A *637:B 0.000602944
*RES
1 *631:Y *119:4 1.6 
2 *119:4 *632:A2 11.165 
3 *119:4 *637:B 13.43 
*END

*D_NET *120 0.00189409
*CONN
*I *636:B1 I *D sky130_fd_sc_hd__a32o_1
*I *635:Y O *D sky130_fd_sc_hd__inv_2
*CAP
1 *636:B1 0.000282828
2 *635:Y 0.000282828
3 *636:B1 *612:B_N 1.99939e-05
4 *636:B1 *633:B1 0.000219767
5 *636:B1 *636:A1 0
6 *636:B1 *636:B2 3.00381e-05
7 *636:B1 *142:12 7.39738e-05
8 *636:B1 *142:32 0.000129314
9 *636:B1 *142:43 7.59112e-05
10 *636:B1 *142:62 7.15571e-05
11 *636:B1 *198:16 0.000642653
12 *636:B1 *207:14 6.52265e-05
*RES
1 *635:Y *636:B1 17.3175 
*END

*D_NET *121 0.0012772
*CONN
*I *639:B I *D sky130_fd_sc_hd__or2_1
*I *638:X O *D sky130_fd_sc_hd__mux4_1
*CAP
1 *639:B 0.000474796
2 *638:X 0.000474796
3 *639:B *638:A2 2.59285e-05
4 *639:B *647:A 0.000301676
*RES
1 *638:X *639:B 16.05 
*END

*D_NET *122 0.000956904
*CONN
*I *642:A2 I *D sky130_fd_sc_hd__a311o_1
*I *639:X O *D sky130_fd_sc_hd__or2_1
*CAP
1 *642:A2 0.000144653
2 *639:X 0.000144653
3 *642:A2 *642:A1 0.000334629
4 *642:A2 *126:16 0.000332969
*RES
1 *639:X *642:A2 11.925 
*END

*D_NET *123 0.00280519
*CONN
*I *641:A I *D sky130_fd_sc_hd__or2b_1
*I *640:X O *D sky130_fd_sc_hd__mux4_1
*CAP
1 *641:A 0.0010424
2 *640:X 0.0010424
3 *641:A *638:A2 3.09164e-05
4 *641:A *640:A1 0
5 *641:A *640:A2 0.000120176
6 *641:A *640:S0 0.000117297
7 *641:A *640:S1 1.41297e-05
8 *641:A *685:A0 7.07032e-05
9 *641:A *732:A 9.52646e-05
10 *641:A *780:A 8.24415e-05
11 *641:A *129:55 0
12 *641:A *208:62 9.61344e-05
13 *641:A *209:87 4.3364e-05
14 *641:A *210:18 4.99619e-05
*RES
1 *640:X *641:A 23.085 
*END

*D_NET *124 0.00116808
*CONN
*I *642:A3 I *D sky130_fd_sc_hd__a311o_1
*I *641:X O *D sky130_fd_sc_hd__or2b_1
*CAP
1 *642:A3 0.000357927
2 *641:X 0.000357927
3 *642:A3 *639:A 0.000136052
4 *642:A3 *698:D 7.22354e-05
5 *642:A3 *728:A 0
6 *642:A3 *776:A 0.000193259
7 *642:A3 *126:8 5.06832e-05
8 *642:A3 *139:26 0
*RES
1 *641:X *642:A3 14.745 
*END

*D_NET *125 0.000434304
*CONN
*I *645:A I *D sky130_fd_sc_hd__clkbuf_1
*I *644:X O *D sky130_fd_sc_hd__and4_1
*CAP
1 *645:A 0.000161871
2 *644:X 0.000161871
3 *645:A *143:45 7.1624e-05
4 *645:A *198:16 3.89366e-05
*RES
1 *644:X *645:A 10.08 
*END

*D_NET *126 0.0168778
*CONN
*I *653:A I *D sky130_fd_sc_hd__inv_2
*I *652:A I *D sky130_fd_sc_hd__inv_2
*I *651:A I *D sky130_fd_sc_hd__inv_2
*I *654:A I *D sky130_fd_sc_hd__inv_2
*I *656:A I *D sky130_fd_sc_hd__inv_2
*I *655:A I *D sky130_fd_sc_hd__inv_2
*I *649:A I *D sky130_fd_sc_hd__inv_2
*I *650:A I *D sky130_fd_sc_hd__inv_2
*I *657:A I *D sky130_fd_sc_hd__inv_2
*I *648:A I *D sky130_fd_sc_hd__inv_2
*I *647:X O *D sky130_fd_sc_hd__buf_4
*CAP
1 *653:A 0.000485953
2 *652:A 0.000122718
3 *651:A 6.51786e-05
4 *654:A 0
5 *656:A 0.000392392
6 *655:A 0.000224577
7 *649:A 0.000551477
8 *650:A 0
9 *657:A 0
10 *648:A 0.000270183
11 *647:X 0.000111052
12 *126:121 0.000929442
13 *126:56 0.000652149
14 *126:38 0.000748332
15 *126:30 0.00113058
16 *126:26 0.00112288
17 *126:18 0.00112105
18 *126:16 0.000733196
19 *126:12 0.00125168
20 *126:8 0.000756064
21 *651:A *629:A 4.24643e-05
22 *651:A *220:81 1.19928e-05
23 *652:A *208:14 0.000128337
24 *653:A *640:A0 0
25 *653:A *683:A0 0.000100139
26 *653:A *683:A1 4.60584e-05
27 *653:A *776:A 0
28 *653:A *129:59 0
29 *653:A *210:10 9.78072e-05
30 *653:A *210:14 0.000102411
31 *655:A *708:CLK 0.000344017
32 *656:A *579:A 0.000111293
33 *656:A *201:68 8.35157e-05
34 *656:A *201:89 4.00406e-05
35 *126:8 *639:A 0
36 *126:12 *210:18 0.000161529
37 *126:12 *210:33 0.000148084
38 *126:16 *604:A1 0
39 *126:16 *642:A1 9.58614e-05
40 *126:16 *776:A 0.000303379
41 *126:16 *198:16 0
42 *126:18 *604:A1 0
43 *126:18 *674:A 5.20968e-05
44 *126:18 *198:16 0
45 *126:26 *198:16 0
46 *126:30 *708:CLK 0
47 *126:30 *142:12 5.51444e-05
48 *126:30 *142:32 0.000131092
49 *126:30 *142:43 7.94942e-05
50 *126:30 *142:62 2.4002e-05
51 *126:30 *198:16 0
52 *126:30 *206:12 0
53 *126:30 *206:37 0.000342858
54 *126:30 *207:14 0.000252977
55 *126:38 *198:16 0
56 *126:56 *201:12 0
57 *126:121 *624:A 0.000433619
58 *126:121 *624:B 2.86975e-05
59 *126:121 *208:14 2.99445e-05
60 *126:121 *208:20 0.000372321
61 *126:121 *210:33 1.08758e-05
62 *126:121 *220:12 0
63 *581:A2 *656:A 8.23457e-05
64 *589:S *656:A 0.000272978
65 *607:S *655:A 1.91681e-05
66 *627:A2 *652:A 1.65432e-05
67 *628:B1 *652:A 1.37328e-05
68 *634:A2 *126:121 1.03323e-05
69 *642:A2 *126:16 0.000332969
70 *642:A3 *126:8 5.06832e-05
71 *643:B *126:30 0
72 *691:SET_B *126:30 0.000201002
73 *693:RESET_B *649:A 4.99619e-05
74 *694:RESET_B *126:30 2.16389e-05
75 *694:RESET_B *126:56 3.39496e-05
76 *696:RESET_B *652:A 2.75229e-05
77 *697:RESET_B *653:A 9.71067e-05
78 *698:SET_B *126:16 8.89751e-05
79 *701:RESET_B *648:A 3.00381e-05
80 *701:RESET_B *126:38 7.00889e-06
81 *724:A *126:18 2.56866e-05
82 *82:14 *126:30 0
83 *85:16 *655:A 0.000438405
84 *85:49 *655:A 7.5386e-05
85 *85:49 *126:26 0.000233626
86 *90:12 *656:A 4.35432e-05
87 *90:12 *126:18 4.14369e-05
88 *90:12 *126:26 7.23533e-05
89 *90:20 *656:A 0.000283767
90 *91:27 *126:26 0
91 *114:6 *126:121 8.70433e-06
*RES
1 *647:X *126:8 5.49 
2 *126:8 *126:12 4.865 
3 *126:12 *126:16 12.05 
4 *126:16 *126:18 6.735 
5 *126:18 *126:26 6.695 
6 *126:26 *126:30 14.6 
7 *126:30 *126:38 9.095 
8 *126:38 *648:A 5.845 
9 *126:38 *657:A 1.6 
10 *126:30 *126:56 3.755 
11 *126:56 *650:A 1.6 
12 *126:56 *649:A 14.285 
13 *126:26 *655:A 7.825 
14 *126:18 *656:A 15.025 
15 *126:16 *654:A 3.6 
16 *126:12 *126:121 15.455 
17 *126:121 *651:A 4.755 
18 *126:121 *652:A 6.405 
19 *126:8 *653:A 13.29 
*END

*D_NET *127 0.0162434
*CONN
*I *666:A I *D sky130_fd_sc_hd__inv_2
*I *662:A I *D sky130_fd_sc_hd__inv_2
*I *663:A I *D sky130_fd_sc_hd__inv_2
*I *661:A I *D sky130_fd_sc_hd__inv_2
*I *665:A I *D sky130_fd_sc_hd__inv_2
*I *660:A I *D sky130_fd_sc_hd__inv_2
*I *667:A I *D sky130_fd_sc_hd__inv_2
*I *659:A I *D sky130_fd_sc_hd__inv_2
*I *664:A I *D sky130_fd_sc_hd__inv_2
*I *668:A I *D sky130_fd_sc_hd__inv_2
*I *658:X O *D sky130_fd_sc_hd__buf_4
*CAP
1 *666:A 0
2 *662:A 0.000133856
3 *663:A 9.25414e-05
4 *661:A 0.000455405
5 *665:A 0.000558805
6 *660:A 0
7 *667:A 7.58174e-05
8 *659:A 0
9 *664:A 0.00014712
10 *668:A 8.29668e-05
11 *658:X 0
12 *127:147 0.000345289
13 *127:132 0.000883404
14 *127:102 0.000617797
15 *127:96 0.00131092
16 *127:82 0.00119679
17 *127:45 0.000254231
18 *127:43 0.000573958
19 *127:30 0.00137453
20 *127:6 0.0011545
21 *661:A *642:B1 6.36594e-05
22 *661:A *760:A 0.000201503
23 *661:A *763:A 3.00381e-05
24 *662:A *143:92 0.000385464
25 *663:A *143:92 0.000235342
26 *664:A *764:A 2.15738e-05
27 *664:A *783:A 6.9451e-05
28 *665:A *621:A1 4.24699e-05
29 *665:A *669:A 0
30 *665:A *673:A 0.00022558
31 *665:A *784:A 1.70935e-05
32 *665:A *155:18 0.000183738
33 *665:A *219:12 8.53113e-06
34 *667:A *755:A 0.000109584
35 *668:A *711:CLK 7.11301e-05
36 *127:30 *597:A 1.08758e-05
37 *127:30 *672:A 0.000111189
38 *127:30 *675:A1 0.000181271
39 *127:30 *700:CLK 0.000104334
40 *127:30 *711:CLK 2.69217e-05
41 *127:30 *746:A 0.00029566
42 *127:30 *780:A 0.000471301
43 *127:30 *140:98 6.44017e-05
44 *127:30 *144:56 3.57846e-05
45 *127:43 *601:A1 0.00024157
46 *127:43 *764:A 6.64438e-05
47 *127:43 *140:77 0
48 *127:45 *764:A 6.44872e-05
49 *127:45 *140:77 0
50 *127:82 *675:A1 1.94805e-05
51 *127:82 *679:A1 2.39856e-05
52 *127:82 *780:A 4.38051e-05
53 *127:82 *129:20 0.000355901
54 *127:96 *642:C1 0.000114858
55 *127:96 *673:A 0.000147487
56 *127:96 *776:A 0.000201508
57 *127:96 *129:10 0.000338822
58 *127:96 *139:26 2.75538e-05
59 *127:96 *161:29 4.88478e-05
60 *127:102 *621:B1 2.97004e-06
61 *127:102 *673:A 8.8266e-05
62 *127:102 *161:14 2.03578e-05
63 *127:132 *642:C1 0
64 *127:132 *760:A 0
65 *127:132 *161:14 3.18137e-05
66 *585:B1 *127:30 3.6227e-05
67 *589:S *665:A 0.000160491
68 *593:A1 *127:30 0.000117302
69 *598:S *127:30 0.00027624
70 *605:A *127:96 0.000140912
71 *632:A2 *665:A 0.000336713
72 *632:A2 *127:96 7.13156e-05
73 *632:A2 *127:102 8.65961e-05
74 *637:B *665:A 0
75 *698:SET_B *127:96 4.99619e-05
76 *700:D *127:30 9.37846e-05
77 *702:RESET_B *664:A 0.000141606
78 *703:D *127:96 4.89295e-05
79 *703:SET_B *127:102 8.53113e-06
80 *703:SET_B *127:132 0.000180682
81 *707:RESET_B *664:A 3.76596e-05
82 *707:RESET_B *127:45 1.70935e-05
83 *709:RESET_B *127:96 7.23602e-05
84 *713:RESET_B *127:30 9.47454e-05
85 *715:D *127:30 0.000106562
86 *724:A *665:A 0
87 *81:69 *127:30 7.03276e-05
88 *82:101 *127:30 0
89 *86:10 *127:30 3.23284e-05
*RES
1 *658:X *127:6 3.6 
2 *127:6 *127:30 27.195 
3 *127:30 *668:A 3.1 
4 *127:30 *127:43 9.755 
5 *127:43 *127:45 2.145 
6 *127:45 *664:A 7.14 
7 *127:45 *659:A 3.6 
8 *127:43 *667:A 5.1 
9 *127:6 *127:82 6.875 
10 *127:82 *127:96 23.04 
11 *127:96 *127:102 3.41 
12 *127:102 *660:A 1.6 
13 *127:102 *665:A 16.82 
14 *127:96 *127:132 5.775 
15 *127:132 *661:A 10.875 
16 *127:132 *127:147 3.89 
17 *127:147 *663:A 3.775 
18 *127:147 *662:A 5.155 
19 *127:82 *666:A 1.6 
*END

*D_NET *128 0.000505077
*CONN
*I *674:A I *D sky130_fd_sc_hd__clkbuf_4
*I *673:X O *D sky130_fd_sc_hd__and3_1
*CAP
1 *674:A 0.00022649
2 *673:X 0.00022649
3 *674:A *604:A1 0
4 *126:18 *674:A 5.20968e-05
*RES
1 *673:X *674:A 10.155 
*END

*D_NET *129 0.0109927
*CONN
*I *685:S I *D sky130_fd_sc_hd__mux2_1
*I *677:S I *D sky130_fd_sc_hd__mux2_1
*I *681:S I *D sky130_fd_sc_hd__mux2_1
*I *689:S I *D sky130_fd_sc_hd__mux2_1
*I *683:S I *D sky130_fd_sc_hd__mux2_1
*I *675:S I *D sky130_fd_sc_hd__mux2_1
*I *679:S I *D sky130_fd_sc_hd__mux2_1
*I *687:S I *D sky130_fd_sc_hd__mux2_1
*I *674:X O *D sky130_fd_sc_hd__clkbuf_4
*CAP
1 *685:S 3.44024e-05
2 *677:S 2.09808e-05
3 *681:S 0.000248842
4 *689:S 0
5 *683:S 0.00020101
6 *675:S 4.27733e-05
7 *679:S 0
8 *687:S 0.000514255
9 *674:X 0.000295707
10 *129:86 0.000484193
11 *129:80 0.000973957
12 *129:59 0.0011384
13 *129:55 0.00079394
14 *129:40 0.000737038
15 *129:20 0.000814433
16 *129:10 0.000750381
17 *675:S *675:A0 5.30673e-05
18 *675:S *739:A 0.000163199
19 *681:S *681:A0 8.06286e-05
20 *681:S *681:A1 0
21 *681:S *689:A0 8.57024e-05
22 *683:S *683:A0 8.65905e-05
23 *683:S *215:8 8.44453e-05
24 *685:S *685:A1 4.99619e-05
25 *685:S *208:62 1.60203e-05
26 *687:S *679:A0 0.000122483
27 *687:S *687:A0 5.11067e-05
28 *687:S *141:6 0.000421202
29 *129:10 *675:A1 0
30 *129:20 *676:A 0.000208113
31 *129:20 *679:A1 0.000810621
32 *129:40 *675:A1 0
33 *129:40 *780:A 0
34 *129:40 *139:26 0
35 *129:55 *638:A2 0
36 *129:55 *685:A0 2.87867e-05
37 *129:55 *728:A 0
38 *129:55 *732:A 7.16437e-05
39 *129:55 *780:A 0
40 *129:55 *139:26 0
41 *129:55 *208:62 7.35813e-05
42 *129:55 *210:14 0
43 *129:59 *640:A0 2.46089e-05
44 *129:59 *640:A1 0
45 *129:59 *732:A 0
46 *129:59 *210:10 0
47 *129:80 *640:A0 4.06899e-05
48 *129:80 *677:A0 7.08971e-05
49 *129:80 *684:A 0
50 *129:80 *733:A 3.09451e-05
51 *129:80 *736:A 4.95266e-05
52 *129:86 *677:A0 7.27003e-05
53 *129:86 *678:A 0.000107105
54 *129:86 *689:A0 4.56956e-05
55 *605:A *129:10 0.000162332
56 *605:A *129:40 3.09164e-05
57 *641:A *129:55 0
58 *653:A *129:59 0
59 *709:D *129:10 0.000118527
60 *720:D *129:80 8.65961e-05
61 *127:82 *129:20 0.000355901
62 *127:96 *129:10 0.000338822
*RES
1 *674:X *129:10 10.425 
2 *129:10 *129:20 11.9 
3 *129:20 *687:S 16.1 
4 *129:20 *679:S 1.6 
5 *129:10 *129:40 2.4 
6 *129:40 *675:S 5.085 
7 *129:40 *129:55 11.405 
8 *129:55 *129:59 5.42 
9 *129:59 *683:S 7.095 
10 *129:59 *129:80 12.89 
11 *129:80 *129:86 4.365 
12 *129:86 *689:S 1.6 
13 *129:86 *681:S 6.25 
14 *129:80 *677:S 1.96 
15 *129:55 *685:S 2.395 
*END

*D_NET *130 0.00084521
*CONN
*I *676:A I *D sky130_fd_sc_hd__clkbuf_1
*I *675:X O *D sky130_fd_sc_hd__mux2_1
*CAP
1 *676:A 0.000244521
2 *675:X 0.000244521
3 *676:A *647:A 7.4027e-05
4 *676:A *780:A 7.4027e-05
5 *129:20 *676:A 0.000208113
*RES
1 *675:X *676:A 12 
*END

*D_NET *131 0.000663695
*CONN
*I *678:A I *D sky130_fd_sc_hd__clkbuf_1
*I *677:X O *D sky130_fd_sc_hd__mux2_1
*CAP
1 *678:A 0.000204567
2 *677:X 0.000204567
3 *678:A *690:A 0
4 *678:A *741:A 4.92096e-05
5 *678:A *141:70 8.65905e-05
6 *717:D *678:A 1.16578e-05
7 *129:86 *678:A 0.000107105
*RES
1 *677:X *678:A 10.77 
*END

*D_NET *132 0.000386172
*CONN
*I *680:A I *D sky130_fd_sc_hd__clkbuf_1
*I *679:X O *D sky130_fd_sc_hd__mux2_1
*CAP
1 *680:A 0.000193086
2 *679:X 0.000193086
3 *680:A *679:A0 0
*RES
1 *679:X *680:A 9.72 
*END

*D_NET *133 0.000342341
*CONN
*I *682:A I *D sky130_fd_sc_hd__clkbuf_1
*I *681:X O *D sky130_fd_sc_hd__mux2_1
*CAP
1 *682:A 8.39643e-05
2 *681:X 8.39643e-05
3 *682:A *780:A 0.000102059
4 *719:D *682:A 7.23533e-05
5 *771:A *682:A 0
*RES
1 *681:X *682:A 9.03 
*END

*D_NET *134 0.000837531
*CONN
*I *684:A I *D sky130_fd_sc_hd__clkbuf_1
*I *683:X O *D sky130_fd_sc_hd__mux2_1
*CAP
1 *684:A 0.00039462
2 *683:X 0.00039462
3 *684:A *780:A 0
4 *684:A *215:8 4.82919e-05
5 *720:D *684:A 0
6 *129:80 *684:A 0
*RES
1 *683:X *684:A 12.045 
*END

*D_NET *135 0.0013221
*CONN
*I *686:A I *D sky130_fd_sc_hd__clkbuf_1
*I *685:X O *D sky130_fd_sc_hd__mux2_1
*CAP
1 *686:A 0.00031546
2 *685:X 0.00031546
3 *686:A *638:S0 0.000128649
4 *686:A *721:CLK 8.51862e-05
5 *686:A *208:62 0.000311288
6 *686:A *216:8 1.83847e-05
7 *721:D *686:A 0.000147673
*RES
1 *685:X *686:A 10.475 
*END

*D_NET *136 0.000217252
*CONN
*I *688:A I *D sky130_fd_sc_hd__clkbuf_1
*I *687:X O *D sky130_fd_sc_hd__mux2_1
*CAP
1 *688:A 0.000108626
2 *687:X 0.000108626
*RES
1 *687:X *688:A 4.955 
*END

*D_NET *137 0.00104155
*CONN
*I *690:A I *D sky130_fd_sc_hd__clkbuf_1
*I *689:X O *D sky130_fd_sc_hd__mux2_1
*CAP
1 *690:A 0.000520773
2 *689:X 0.000520773
3 *690:A *638:A3 0
4 *690:A *741:A 0
5 *678:A *690:A 0
6 *723:D *690:A 0
*RES
1 *689:X *690:A 15.435 
*END

*D_NET *138 0.000554651
*CONN
*I *698:D I *D sky130_fd_sc_hd__dfstp_1
*I *642:X O *D sky130_fd_sc_hd__a311o_1
*CAP
1 *698:D 0.000214084
2 *642:X 0.000214084
3 *698:D *776:A 5.42473e-05
4 *698:D *139:26 0
5 *642:A3 *698:D 7.22354e-05
*RES
1 *642:X *698:D 10.32 
*END

*D_NET *139 0.00840852
*CONN
*I *728:A I *D sky130_fd_sc_hd__clkbuf_16
*I *726:A I *D sky130_fd_sc_hd__clkbuf_16
*I *727:A I *D sky130_fd_sc_hd__clkbuf_16
*I *725:A I *D sky130_fd_sc_hd__clkbuf_16
*I *724:X O *D sky130_fd_sc_hd__clkbuf_16
*CAP
1 *728:A 0.000270767
2 *726:A 0.000943788
3 *727:A 9.7607e-05
4 *725:A 0.000520917
5 *724:X 0
6 *139:26 0.00170458
7 *139:10 0.00110133
8 *139:6 0.000972823
9 *725:A *612:B_N 0.000309804
10 *725:A *764:A 0.000651354
11 *726:A *141:6 2.86975e-05
12 *726:A *141:12 1.44215e-05
13 *726:A *141:38 3.97719e-05
14 *727:A *611:B2 0.000342594
15 *727:A *612:B_N 0.00010962
16 *139:10 *591:A 2.14995e-05
17 *139:10 *592:B1 0
18 *139:10 *603:A 3.52569e-05
19 *139:10 *604:A1 0
20 *139:10 *201:42 0.000132827
21 *139:10 *201:68 0.000165586
22 *139:10 *202:71 1.30872e-05
23 *139:26 *604:A1 0
24 *588:B *139:10 5.72483e-05
25 *604:S *139:10 0.000134516
26 *605:A *139:10 0
27 *605:A *139:26 0
28 *615:A *727:A 4.42148e-05
29 *615:B *727:A 8.35157e-05
30 *642:A3 *728:A 0
31 *642:A3 *139:26 0
32 *698:D *139:26 0
33 *700:RESET_B *139:10 9.23578e-05
34 *709:RESET_B *139:26 8.89751e-05
35 *730:A *139:10 0.00015356
36 *81:10 *139:10 4.58262e-06
37 *85:49 *139:10 0.00013374
38 *87:12 *727:A 1.90907e-05
39 *90:20 *139:10 0
40 *91:27 *139:10 0
41 *94:23 *139:10 9.28441e-05
42 *127:96 *139:26 2.75538e-05
43 *129:40 *139:26 0
44 *129:55 *728:A 0
45 *129:55 *139:26 0
*RES
1 *724:X *139:6 3.6 
2 *139:6 *139:10 13.58 
3 *139:10 *725:A 11.365 
4 *139:10 *727:A 5.155 
5 *139:6 *139:26 8.3925 
6 *139:26 *726:A 7.43543 
7 *139:26 *728:A 7.6425 
*END

*D_NET *140 0.0100014
*CONN
*I *700:CLK I *D sky130_fd_sc_hd__dfrtp_1
*I *713:CLK I *D sky130_fd_sc_hd__dfrtp_1
*I *711:CLK I *D sky130_fd_sc_hd__dfrtp_1
*I *715:CLK I *D sky130_fd_sc_hd__dfrtp_1
*I *701:CLK I *D sky130_fd_sc_hd__dfrtp_4
*I *702:CLK I *D sky130_fd_sc_hd__dfrtp_4
*I *692:CLK I *D sky130_fd_sc_hd__dfrtp_2
*I *710:CLK I *D sky130_fd_sc_hd__dfrtp_1
*I *707:CLK I *D sky130_fd_sc_hd__dfrtp_1
*I *725:X O *D sky130_fd_sc_hd__clkbuf_16
*CAP
1 *700:CLK 0.000227478
2 *713:CLK 0.000242458
3 *711:CLK 0.000555571
4 *715:CLK 0.000189901
5 *701:CLK 0.000357713
6 *702:CLK 0.00014691
7 *692:CLK 0
8 *710:CLK 0.000188882
9 *707:CLK 3.55506e-05
10 *725:X 0.000165437
11 *140:98 0.000852025
12 *140:96 0.00043841
13 *140:77 0.000780667
14 *140:53 0.000674762
15 *140:46 0.000461352
16 *140:40 0.00104575
17 *140:14 0.000612208
18 *140:12 0.000873916
19 *700:CLK *585:A1 0.000145654
20 *702:CLK *202:21 0.00013629
21 *713:CLK *753:A 0
22 *713:CLK *778:A 0
23 *715:CLK *746:A 4.39549e-05
24 *140:12 *764:A 0
25 *140:12 *777:A 3.86607e-05
26 *140:12 *782:A 0.000139087
27 *140:14 *707:D 0.000178759
28 *140:40 *707:D 3.54926e-05
29 *140:53 *692:D 3.18064e-05
30 *140:77 *601:A1 8.93046e-05
31 *585:A4 *700:CLK 8.41307e-05
32 *585:B1 *700:CLK 1.79098e-05
33 *668:A *711:CLK 7.11301e-05
34 *692:RESET_B *701:CLK 2.40101e-05
35 *702:RESET_B *140:46 2.03321e-05
36 *707:RESET_B *140:40 0.00030418
37 *707:RESET_B *140:46 8.97564e-05
38 *710:D *710:CLK 5.83121e-06
39 *711:RESET_B *711:CLK 0.000109498
40 *713:D *713:CLK 3.89528e-05
41 *715:RESET_B *713:CLK 3.92518e-05
42 *715:RESET_B *715:CLK 1.33305e-05
43 *715:RESET_B *140:96 0.000132462
44 *759:A *140:40 1.83756e-05
45 *81:69 *700:CLK 6.21763e-05
46 *88:10 *702:CLK 8.64421e-05
47 *127:30 *700:CLK 0.000104334
48 *127:30 *711:CLK 2.69217e-05
49 *127:30 *140:98 6.44017e-05
50 *127:43 *140:77 0
51 *127:45 *140:77 0
*RES
1 *725:X *140:12 8.96 
2 *140:12 *140:14 4.935 
3 *140:14 *707:CLK 2.215 
4 *140:14 *710:CLK 8.225 
5 *140:12 *140:40 6.245 
6 *140:40 *140:46 6.83 
7 *140:46 *692:CLK 1.6 
8 *140:46 *140:53 2.52 
9 *140:53 *702:CLK 8.645 
10 *140:53 *701:CLK 6.535 
11 *140:40 *140:77 6.99 
12 *140:77 *715:CLK 6.15 
13 *140:77 *140:96 5.015 
14 *140:96 *140:98 1.14 
15 *140:98 *711:CLK 10.675 
16 *140:98 *713:CLK 9.53 
17 *140:96 *700:CLK 6.535 
*END

*D_NET *141 0.0086341
*CONN
*I *718:CLK I *D sky130_fd_sc_hd__dfxtp_1
*I *720:CLK I *D sky130_fd_sc_hd__dfxtp_1
*I *723:CLK I *D sky130_fd_sc_hd__dfxtp_1
*I *719:CLK I *D sky130_fd_sc_hd__dfxtp_1
*I *722:CLK I *D sky130_fd_sc_hd__dfxtp_1
*I *717:CLK I *D sky130_fd_sc_hd__dfxtp_1
*I *721:CLK I *D sky130_fd_sc_hd__dfxtp_1
*I *716:CLK I *D sky130_fd_sc_hd__dfxtp_1
*I *709:CLK I *D sky130_fd_sc_hd__dfrtp_1
*I *726:X O *D sky130_fd_sc_hd__clkbuf_16
*CAP
1 *718:CLK 2.09808e-05
2 *720:CLK 0.000107741
3 *723:CLK 0
4 *719:CLK 3.37585e-05
5 *722:CLK 0.00038794
6 *717:CLK 0
7 *721:CLK 2.61889e-05
8 *716:CLK 0.000112355
9 *709:CLK 0.000572577
10 *726:X 0.000295105
11 *141:74 0.00051907
12 *141:70 0.000547804
13 *141:57 0.0005988
14 *141:55 0.000404046
15 *141:38 0.000548594
16 *141:14 0.000775894
17 *141:12 0.000558218
18 *141:6 0.000408873
19 *709:CLK *647:A 0
20 *709:CLK *144:71 0
21 *720:CLK *638:A1 8.92044e-05
22 *720:CLK *640:A3 8.6386e-05
23 *720:CLK *218:6 4.9253e-06
24 *721:CLK *638:A1 1.93834e-05
25 *721:CLK *638:S0 4.60123e-05
26 *141:14 *647:A 0
27 *141:38 *638:A1 7.07879e-05
28 *141:38 *638:S0 0.000231889
29 *141:38 *638:S1 0
30 *141:38 *640:A2 7.98265e-06
31 *141:38 *780:A 0
32 *141:55 *638:A1 0.000281013
33 *141:55 *638:S0 6.29385e-06
34 *141:55 *640:A2 0.00011723
35 *141:55 *741:A 0
36 *141:57 *218:6 0.000151965
37 *141:70 *218:6 0.000134477
38 rx_data[5] *141:74 0
39 *678:A *141:70 8.65905e-05
40 *686:A *721:CLK 8.51862e-05
41 *687:S *141:6 0.000421202
42 *716:D *709:CLK 4.87406e-05
43 *716:D *716:CLK 8.89542e-05
44 *717:D *141:57 0.00011085
45 *717:D *141:70 3.90495e-05
46 *718:D *716:CLK 0.000106556
47 *718:D *141:14 6.90254e-05
48 *718:D *141:38 7.22689e-05
49 *719:D *141:74 0.00011852
50 *722:D *722:CLK 4.89395e-05
51 *723:D *722:CLK 5.72004e-05
52 *723:D *141:70 1.43717e-05
53 *723:D *141:74 1.82563e-05
54 *726:A *141:6 2.86975e-05
55 *726:A *141:12 1.44215e-05
56 *726:A *141:38 3.97719e-05
*RES
1 *726:X *141:6 6.88 
2 *141:6 *141:12 3.155 
3 *141:12 *141:14 1.635 
4 *141:14 *709:CLK 11.775 
5 *141:14 *716:CLK 6.12 
6 *141:12 *141:38 7.5675 
7 *141:38 *721:CLK 4.6275 
8 *141:38 *141:55 5.9075 
9 *141:55 *141:57 3.555 
10 *141:57 *717:CLK 1.6 
11 *141:57 *141:70 8.175 
12 *141:70 *141:74 3.89 
13 *141:74 *722:CLK 10.53 
14 *141:74 *719:CLK 4.05 
15 *141:70 *723:CLK 1.6 
16 *141:55 *720:CLK 4.12 
17 *141:6 *718:CLK 1.96 
*END

*D_NET *142 0.00848186
*CONN
*I *699:CLK I *D sky130_fd_sc_hd__dfrtp_1
*I *708:CLK I *D sky130_fd_sc_hd__dfrtp_1
*I *691:CLK I *D sky130_fd_sc_hd__dfstp_1
*I *712:CLK I *D sky130_fd_sc_hd__dfrtp_1
*I *693:CLK I *D sky130_fd_sc_hd__dfrtp_1
*I *694:CLK I *D sky130_fd_sc_hd__dfrtp_1
*I *727:X O *D sky130_fd_sc_hd__clkbuf_16
*CAP
1 *699:CLK 0
2 *708:CLK 0.000374676
3 *691:CLK 0.000185458
4 *712:CLK 0.000441165
5 *693:CLK 0
6 *694:CLK 0.000645541
7 *727:X 0.00011521
8 *142:62 0.000617724
9 *142:43 0.000500908
10 *142:32 0.000604485
11 *142:12 0.000759989
12 *142:8 0.000320576
13 *694:CLK *633:B1 3.1676e-05
14 *694:CLK *694:D 4.40446e-05
15 *694:CLK *207:14 2.75229e-05
16 *708:CLK *784:A 5.30673e-05
17 *712:CLK *580:B 0.000178328
18 *712:CLK *580:C 7.74985e-05
19 *712:CLK *587:C 0.000197839
20 *712:CLK *207:34 0.000119873
21 *712:CLK *207:49 4.66108e-05
22 *142:12 *198:16 4.41468e-05
23 *142:12 *207:14 0.000206817
24 *142:62 *635:A 0.000181703
25 *142:62 *198:16 1.18673e-05
26 *589:S *142:62 0.000309012
27 *595:S *691:CLK 0.000161222
28 *607:S *708:CLK 0.00015601
29 *610:B1 *712:CLK 4.77719e-05
30 *611:A2 *712:CLK 1.43253e-05
31 *617:A2 *694:CLK 1.5186e-05
32 *636:B1 *142:12 7.39738e-05
33 *636:B1 *142:32 0.000129314
34 *636:B1 *142:43 7.59112e-05
35 *636:B1 *142:62 7.15571e-05
36 *655:A *708:CLK 0.000344017
37 *691:SET_B *142:62 0.000304595
38 *694:RESET_B *694:CLK 4.75593e-05
39 *694:RESET_B *142:12 5.23362e-05
40 *712:D *712:CLK 2.88357e-05
41 *24:6 *712:CLK 0.000344351
42 *82:14 *708:CLK 0.000116853
43 *82:83 *708:CLK 4.14369e-05
44 *85:16 *712:CLK 7.11301e-05
45 *126:30 *708:CLK 0
46 *126:30 *142:12 5.51444e-05
47 *126:30 *142:32 0.000131092
48 *126:30 *142:43 7.94942e-05
49 *126:30 *142:62 2.4002e-05
*RES
1 *727:X *142:8 4.74 
2 *142:8 *142:12 5.675 
3 *142:12 *694:CLK 9.94 
4 *142:12 *693:CLK 1.6 
5 *142:8 *142:32 2.91 
6 *142:32 *712:CLK 14.055 
7 *142:32 *142:43 1.89 
8 *142:43 *691:CLK 7.275 
9 *142:43 *142:62 9.05 
10 *142:62 *708:CLK 14.15 
11 *142:62 *699:CLK 1.6 
*END

*D_NET *143 0.0101369
*CONN
*I *705:CLK I *D sky130_fd_sc_hd__dfrtp_1
*I *704:CLK I *D sky130_fd_sc_hd__dfrtp_4
*I *714:CLK I *D sky130_fd_sc_hd__dfrtp_1
*I *695:CLK I *D sky130_fd_sc_hd__dfrtp_4
*I *696:CLK I *D sky130_fd_sc_hd__dfrtp_4
*I *697:CLK I *D sky130_fd_sc_hd__dfrtp_1
*I *706:CLK I *D sky130_fd_sc_hd__dfrtp_1
*I *703:CLK I *D sky130_fd_sc_hd__dfstp_1
*I *698:CLK I *D sky130_fd_sc_hd__dfstp_1
*I *728:X O *D sky130_fd_sc_hd__clkbuf_16
*CAP
1 *705:CLK 0
2 *704:CLK 0.000562514
3 *714:CLK 0.000356228
4 *695:CLK 0.000157548
5 *696:CLK 0.00047953
6 *697:CLK 0.000189852
7 *706:CLK 1.17375e-05
8 *703:CLK 0.000107971
9 *698:CLK 0.000322171
10 *728:X 0
11 *143:94 0.000918742
12 *143:92 0.00053888
13 *143:49 0.000677546
14 *143:45 0.000531349
15 *143:14 0.00053894
16 *143:10 0.000234854
17 *143:8 0.000582856
18 *143:4 0.000641781
19 *695:CLK *683:A1 3.26889e-05
20 *695:CLK *745:A 5.92849e-05
21 *697:CLK *209:87 8.09753e-05
22 *698:CLK *679:A1 0.000360449
23 *703:CLK *679:A1 0.00024985
24 *706:CLK *642:C1 2.75229e-05
25 *714:CLK *760:A 0
26 *714:CLK *763:A 0.000203762
27 *714:CLK *219:12 0.000118513
28 *143:10 *198:16 1.5841e-05
29 *143:14 *642:C1 0
30 *143:14 *198:16 7.6664e-05
31 *143:45 *624:B 0
32 *143:45 *745:A 5.42757e-05
33 *143:45 *198:16 0.000139495
34 *143:45 *208:44 7.63125e-05
35 *143:45 *209:27 4.24292e-06
36 *623:B1 *143:45 1.93834e-05
37 *628:A2 *696:CLK 7.47215e-05
38 *630:B1 *696:CLK 7.01359e-05
39 *637:B *714:CLK 0
40 *645:A *143:45 7.1624e-05
41 *662:A *143:92 0.000385464
42 *663:A *143:92 0.000235342
43 *696:RESET_B *696:CLK 0.000348489
44 *696:RESET_B *143:49 9.53428e-06
45 *705:D *714:CLK 0.000116367
46 *705:RESET_B *143:92 0.000128008
47 *706:D *706:CLK 4.82919e-05
48 *706:D *143:10 0.000103434
49 *706:D *143:45 3.3625e-05
50 *706:RESET_B *143:10 0
51 *706:RESET_B *143:14 0
52 *735:A *695:CLK 7.53115e-05
53 *735:A *143:45 6.47594e-05
*RES
1 *728:X *143:4 1.6 
2 *143:4 *143:8 3.14 
3 *143:8 *143:10 2.655 
4 *143:10 *143:14 4.145 
5 *143:14 *698:CLK 8.395 
6 *143:14 *703:CLK 4.12 
7 *143:10 *706:CLK 4.05 
8 *143:8 *143:45 7.5 
9 *143:45 *143:49 2.36 
10 *143:49 *697:CLK 4.48 
11 *143:49 *696:CLK 12.455 
12 *143:45 *695:CLK 6.99 
13 *143:4 *143:92 9.795 
14 *143:92 *143:94 2 
15 *143:94 *714:CLK 10.965 
16 *143:94 *704:CLK 11.64 
17 *143:92 *705:CLK 1.6 
*END

*D_NET *144 0.0141087
*CONN
*I *671:A I *D sky130_fd_sc_hd__inv_2
*I *646:A I *D sky130_fd_sc_hd__inv_2
*I *647:A I *D sky130_fd_sc_hd__buf_4
*I *658:A I *D sky130_fd_sc_hd__buf_4
*I *670:A I *D sky130_fd_sc_hd__inv_2
*I *672:A I *D sky130_fd_sc_hd__inv_2
*I *669:A I *D sky130_fd_sc_hd__inv_2
*I *765:X O *D sky130_fd_sc_hd__clkbuf_4
*CAP
1 *671:A 4.50497e-05
2 *646:A 0
3 *647:A 0.00072963
4 *658:A 0
5 *670:A 0.000138084
6 *672:A 0.00019042
7 *669:A 0.000256343
8 *765:X 0.00104981
9 *144:71 0.00095887
10 *144:56 0.000465169
11 *144:39 0.000806034
12 *144:35 0.00121735
13 *144:18 0.00120865
14 *144:12 0.00134758
15 *647:A *638:A0 0.000242944
16 *647:A *744:A 1.56428e-05
17 *647:A *780:A 0.000333822
18 *669:A *775:A 0
19 *671:A *679:A1 4.66108e-05
20 *144:12 *634:B1 0
21 *144:12 *704:D 0.000156911
22 *144:12 *775:A 0
23 *144:18 *775:A 0
24 *144:35 *699:D 9.06623e-05
25 *144:35 *155:18 0.000331947
26 *144:39 *754:A 1.61831e-05
27 *144:56 *780:A 0.00011852
28 *144:71 *780:A 0.000382024
29 *589:A0 *144:18 2.66939e-05
30 *589:S *669:A 6.28765e-05
31 *589:S *144:18 7.26551e-05
32 *590:A *669:A 8.53113e-06
33 *590:A *144:18 0.000141606
34 *592:A3 *672:A 0
35 *593:A2 *672:A 8.41307e-05
36 *593:B1 *672:A 0.000234878
37 *605:A *144:39 2.11084e-05
38 *637:A *144:18 0.000170716
39 *639:B *647:A 0.000301676
40 *665:A *669:A 0
41 *676:A *647:A 7.4027e-05
42 *705:D *144:12 0
43 *708:RESET_B *669:A 3.64998e-06
44 *709:CLK *647:A 0
45 *709:CLK *144:71 0
46 *713:D *672:A 4.99619e-05
47 *713:RESET_B *144:39 0.000122337
48 *714:D *144:18 0.000107439
49 *714:RESET_B *144:18 0.000163992
50 *761:A *144:35 0.000164874
51 *82:83 *144:35 0.000299817
52 *82:83 *144:39 0.00087559
53 *82:93 *672:A 0.000131804
54 *82:93 *144:39 0.000579417
55 *82:101 *672:A 4.89295e-05
56 *82:126 *672:A 6.67161e-05
57 *127:30 *672:A 0.000111189
58 *127:30 *144:56 3.57846e-05
59 *141:14 *647:A 0
*RES
1 *765:X *144:12 21.6 
2 *144:12 *144:18 7.29 
3 *144:18 *669:A 7.77 
4 *144:18 *144:35 15.905 
5 *144:35 *144:39 15.215 
6 *144:39 *672:A 8.91 
7 *144:39 *144:56 2.145 
8 *144:56 *670:A 5.445 
9 *144:56 *144:71 4.89 
10 *144:71 *658:A 3.6 
11 *144:71 *647:A 16.995 
12 *144:35 *646:A 1.6 
13 *144:12 *671:A 4.41 
*END

*D_NET *145 0.00146066
*CONN
*I *689:A1 I *D sky130_fd_sc_hd__mux2_1
*I *766:X O *D sky130_fd_sc_hd__clkbuf_1
*CAP
1 *689:A1 0.000585016
2 *766:X 0.000585016
3 *689:A1 *681:A0 0
4 *689:A1 *689:A0 0
5 *689:A1 *741:A 0
6 *689:A1 *780:A 0.000110549
7 *719:D *689:A1 1.4389e-05
8 *771:A *689:A1 0.00016569
*RES
1 *766:X *689:A1 16.605 
*END

*D_NET *146 0.00444333
*CONN
*I *775:A I *D sky130_fd_sc_hd__clkbuf_4
*I *758:A I *D sky130_fd_sc_hd__dlygate4sd3_1
*I *708:Q O *D sky130_fd_sc_hd__dfrtp_1
*CAP
1 *775:A 0.00139237
2 *758:A 0.000110713
3 *708:Q 6.9523e-05
4 *146:10 0.00157261
5 *775:A *622:B_N 0.000133075
6 *775:A *679:A1 7.89767e-05
7 *775:A *756:A 9.99492e-05
8 *775:A *781:A 0.000212979
9 *775:A *155:18 9.76522e-05
10 *775:A *221:8 0.000289151
11 *146:10 *784:A 2.70365e-05
12 rx_data[6] *775:A 6.06899e-05
13 *589:A0 *775:A 0
14 *589:S *775:A 0
15 *590:A *775:A 0
16 *669:A *775:A 0
17 *708:RESET_B *775:A 0
18 *712:RESET_B *758:A 0.000158337
19 *712:RESET_B *775:A 0.000140266
20 *714:D *775:A 0
21 *714:RESET_B *775:A 0
22 *144:12 *775:A 0
23 *144:18 *775:A 0
*RES
1 *708:Q *146:10 4.665 
2 *146:10 *758:A 5.49 
3 *146:10 *775:A 32.01 
*END

*D_NET *147 0.00446715
*CONN
*I *776:A I *D sky130_fd_sc_hd__clkbuf_4
*I *604:A1 I *D sky130_fd_sc_hd__mux2_1
*I *709:Q O *D sky130_fd_sc_hd__dfrtp_1
*CAP
1 *776:A 0.00109018
2 *604:A1 0.000513684
3 *709:Q 0
4 *147:4 0.00160386
5 *776:A *639:A 0.000178548
6 *776:A *642:A1 0
7 *776:A *683:A0 5.4256e-05
8 *776:A *683:A1 0
9 *776:A *697:D 3.86607e-05
10 *776:A *733:A 0
11 *776:A *209:8 0
12 *776:A *209:10 0
13 *776:A *209:16 0
14 *776:A *220:47 0
15 *604:S *604:A1 0
16 *642:A3 *776:A 0.000193259
17 *653:A *776:A 0
18 *674:A *604:A1 0
19 *697:RESET_B *776:A 0
20 *698:D *776:A 5.42473e-05
21 *735:A *776:A 0
22 *82:83 *604:A1 0.000235568
23 *126:16 *604:A1 0
24 *126:16 *776:A 0.000303379
25 *126:18 *604:A1 0
26 *127:96 *776:A 0.000201508
27 *139:10 *604:A1 0
28 *139:26 *604:A1 0
*RES
1 *709:Q *147:4 1.6 
2 *147:4 *604:A1 13.235 
3 *147:4 *776:A 26.915 
*END

*D_NET *148 0.00237107
*CONN
*I *755:A I *D sky130_fd_sc_hd__dlygate4sd3_1
*I *777:A I *D sky130_fd_sc_hd__clkbuf_4
*I *710:Q O *D sky130_fd_sc_hd__dfrtp_1
*CAP
1 *755:A 0.000353229
2 *777:A 0.000616319
3 *710:Q 0
4 *148:4 0.000969549
5 *777:A *764:A 5.72742e-05
6 *777:A *782:A 0
7 *777:A *783:A 0.000122474
8 *777:A *202:12 1.7386e-05
9 *667:A *755:A 0.000109584
10 *710:RESET_B *755:A 8.65961e-05
11 *140:12 *777:A 3.86607e-05
*RES
1 *710:Q *148:4 1.6 
2 *148:4 *777:A 16.085 
3 *148:4 *755:A 6.91 
*END

*D_NET *149 0.0019957
*CONN
*I *753:A I *D sky130_fd_sc_hd__dlygate4sd3_1
*I *778:A I *D sky130_fd_sc_hd__clkbuf_4
*I *711:Q O *D sky130_fd_sc_hd__dfrtp_1
*CAP
1 *753:A 0.000128875
2 *778:A 0.000450656
3 *711:Q 0
4 *149:6 0.000579531
5 *753:A *598:A1 4.82919e-05
6 *778:A *746:A 8.23457e-05
7 *598:S *753:A 0.000276441
8 *601:A0 *753:A 3.26822e-05
9 *601:A0 *778:A 9.97203e-05
10 *711:D *778:A 0.0001615
11 *713:CLK *753:A 0
12 *713:CLK *778:A 0
13 *82:126 *753:A 0.000135652
*RES
1 *711:Q *149:6 3.6 
2 *149:6 *778:A 11.49 
3 *149:6 *753:A 7.5 
*END

*D_NET *150 0.00156258
*CONN
*I *752:A I *D sky130_fd_sc_hd__dlygate4sd3_1
*I *779:A I *D sky130_fd_sc_hd__clkbuf_4
*I *712:Q O *D sky130_fd_sc_hd__dfrtp_1
*CAP
1 *752:A 6.01174e-05
2 *779:A 0.000330066
3 *712:Q 0.000149216
4 *150:10 0.000539399
5 *779:A *155:18 0.00038276
6 *150:10 *155:18 7.41023e-05
7 *712:RESET_B *150:10 2.69217e-05
*RES
1 *712:Q *150:10 6.03 
2 *150:10 *779:A 11.355 
3 *150:10 *752:A 4.395 
*END

*D_NET *151 0.0073374
*CONN
*I *754:A I *D sky130_fd_sc_hd__dlygate4sd3_1
*I *780:A I *D sky130_fd_sc_hd__clkbuf_4
*I *713:Q O *D sky130_fd_sc_hd__dfrtp_1
*CAP
1 *754:A 0.000118397
2 *780:A 0.00181412
3 *713:Q 0
4 *151:4 0.00193252
5 *780:A *638:A0 9.63869e-05
6 *780:A *638:A2 0.000150418
7 *780:A *638:S1 0.000191421
8 *780:A *640:A3 4.41365e-05
9 *780:A *640:S0 8.28738e-05
10 *780:A *640:S1 7.5416e-05
11 *780:A *675:A1 0
12 *780:A *681:A1 0.000106716
13 *780:A *741:A 0.000163199
14 *780:A *743:A 4.43625e-05
15 *780:A *208:62 9.78012e-05
16 *780:A *213:10 0.00013475
17 *641:A *780:A 8.24415e-05
18 *647:A *780:A 0.000333822
19 *676:A *780:A 7.4027e-05
20 *682:A *780:A 0.000102059
21 *684:A *780:A 0
22 *689:A1 *780:A 0.000110549
23 *713:RESET_B *754:A 8.18952e-05
24 *720:D *780:A 0.000143266
25 *769:A *780:A 8.51862e-05
26 *771:A *780:A 0.000239813
27 *127:30 *780:A 0.000471301
28 *127:82 *780:A 4.38051e-05
29 *129:40 *780:A 0
30 *129:55 *780:A 0
31 *141:38 *780:A 0
32 *144:39 *754:A 1.61831e-05
33 *144:56 *780:A 0.00011852
34 *144:71 *780:A 0.000382024
*RES
1 *713:Q *151:4 1.6 
2 *151:4 *780:A 49.005 
3 *151:4 *754:A 3.355 
*END

*D_NET *152 0.00232575
*CONN
*I *781:A I *D sky130_fd_sc_hd__clkbuf_4
*I *756:A I *D sky130_fd_sc_hd__dlygate4sd3_1
*I *714:Q O *D sky130_fd_sc_hd__dfrtp_1
*CAP
1 *781:A 0.000603452
2 *756:A 0.000114209
3 *714:Q 4.43379e-05
4 *152:8 0.000761999
5 *781:A *622:B_N 7.89767e-05
6 *781:A *679:A1 0.000141606
7 *781:A *221:8 0.0001619
8 rx_data[6] *781:A 0.000106344
9 *770:A *781:A 0
10 *775:A *756:A 9.99492e-05
11 *775:A *781:A 0.000212979
*RES
1 *714:Q *152:8 4.05 
2 *152:8 *756:A 6.255 
3 *152:8 *781:A 17.475 
*END

*D_NET *153 0.00459722
*CONN
*I *746:A I *D sky130_fd_sc_hd__dlygate4sd3_1
*I *782:A I *D sky130_fd_sc_hd__clkbuf_4
*I *715:Q O *D sky130_fd_sc_hd__dfrtp_1
*CAP
1 *746:A 0.000763521
2 *782:A 0.00106817
3 *715:Q 0
4 *153:6 0.00183169
5 *782:A *783:A 0
6 *601:A0 *746:A 0.000116572
7 *601:A0 *782:A 7.1624e-05
8 *602:A *782:A 2.59285e-05
9 *710:D *782:A 0
10 *715:CLK *746:A 4.39549e-05
11 *715:RESET_B *746:A 0.000152843
12 *777:A *782:A 0
13 *778:A *746:A 8.23457e-05
14 *86:10 *746:A 5.83121e-06
15 *127:30 *746:A 0.00029566
16 *140:12 *782:A 0.000139087
*RES
1 *715:Q *153:6 3.6 
2 *153:6 *782:A 21.375 
3 *153:6 *746:A 15.33 
*END

*D_NET *154 0.00390955
*CONN
*I *764:A I *D sky130_fd_sc_hd__dlygate4sd3_1
*I *783:A I *D sky130_fd_sc_hd__clkbuf_4
*I *707:Q O *D sky130_fd_sc_hd__dfrtp_1
*CAP
1 *764:A 0.000765839
2 *783:A 0.000427888
3 *707:Q 0
4 *154:6 0.00119373
5 *764:A *612:B_N 8.64599e-05
6 *764:A *707:D 4.52365e-05
7 *664:A *764:A 2.15738e-05
8 *664:A *783:A 6.9451e-05
9 *702:RESET_B *783:A 0
10 *725:A *764:A 0.000651354
11 *730:A *764:A 0.000337346
12 *777:A *764:A 5.72742e-05
13 *777:A *783:A 0.000122474
14 *782:A *783:A 0
15 *127:43 *764:A 6.64438e-05
16 *127:45 *764:A 6.44872e-05
17 *140:12 *764:A 0
*RES
1 *707:Q *154:6 3.6 
2 *154:6 *783:A 11.745 
3 *154:6 *764:A 19.905 
*END

*D_NET *155 0.00727424
*CONN
*I *631:A I *D sky130_fd_sc_hd__inv_2
*I *673:B I *D sky130_fd_sc_hd__and3_1
*I *767:X O *D sky130_fd_sc_hd__buf_1
*CAP
1 *631:A 6.48629e-05
2 *673:B 0.000827123
3 *767:X 0.00151106
4 *155:18 0.00240305
5 *673:B *621:A1 0.000204714
6 *673:B *621:B1 4.62212e-05
7 *673:B *635:A 8.49205e-05
8 *673:B *737:A 6.02012e-05
9 *155:18 *621:A1 0.000185398
10 rx_data[4] *155:18 1.17114e-05
11 tx_done *155:18 0.000149186
12 *590:A *155:18 7.60965e-05
13 *621:A2 *631:A 3.18367e-05
14 *637:A *673:B 2.19562e-06
15 *637:B *631:A 4.82863e-05
16 *665:A *155:18 0.000183738
17 *673:C *673:B 1.17309e-05
18 *712:RESET_B *155:18 0.000485448
19 *775:A *155:18 9.76522e-05
20 *779:A *155:18 0.00038276
21 *144:35 *155:18 0.000331947
22 *150:10 *155:18 7.41023e-05
*RES
1 *767:X *155:18 39.015 
2 *155:18 *673:B 12.295 
3 *155:18 *631:A 2.92 
*END

*D_NET *156 0.00286832
*CONN
*I *621:A1 I *D sky130_fd_sc_hd__a21o_1
*I *784:A I *D sky130_fd_sc_hd__buf_2
*I *699:Q O *D sky130_fd_sc_hd__dfrtp_1
*CAP
1 *621:A1 0.000213173
2 *784:A 0.000682705
3 *699:Q 6.35353e-05
4 *156:8 0.000959413
5 *589:S *156:8 3.45679e-05
6 *607:S *784:A 0.000137782
7 *608:A *784:A 0
8 *621:A2 *621:A1 0.000195035
9 *665:A *621:A1 4.24699e-05
10 *665:A *784:A 1.70935e-05
11 *673:B *621:A1 0.000204714
12 *699:RESET_B *784:A 0
13 *708:CLK *784:A 5.30673e-05
14 *708:D *784:A 1.0263e-05
15 *708:RESET_B *784:A 4.20711e-05
16 *724:A *784:A 0
17 *761:A *621:A1 0
18 *146:10 *784:A 2.70365e-05
19 *155:18 *621:A1 0.000185398
*RES
1 *699:Q *156:8 4.395 
2 *156:8 *784:A 14.865 
3 *156:8 *621:A1 9.21 
*END

*D_NET *157 0.000718563
*CONN
*I *634:B1 I *D sky130_fd_sc_hd__a21o_1
*I *729:X O *D sky130_fd_sc_hd__dlygate4sd3_1
*CAP
1 *634:B1 0.000291819
2 *729:X 0.000291819
3 *634:B1 *622:A 5.07419e-05
4 *634:B1 *704:D 1.01551e-05
5 *634:A2 *634:B1 0
6 *740:A *634:B1 7.4027e-05
7 *144:12 *634:B1 0
*RES
1 *729:X *634:B1 11.55 
*END

*D_NET *158 0.000532254
*CONN
*I *704:D I *D sky130_fd_sc_hd__dfrtp_4
*I *740:X O *D sky130_fd_sc_hd__dlygate4sd3_1
*CAP
1 *704:D 0.000182594
2 *740:X 0.000182594
3 *634:B1 *704:D 1.01551e-05
4 *144:12 *704:D 0.000156911
*RES
1 *740:X *704:D 10.23 
*END

*D_NET *159 0.00436426
*CONN
*I *633:B1 I *D sky130_fd_sc_hd__a21o_1
*I *751:X O *D sky130_fd_sc_hd__dlygate4sd3_1
*CAP
1 *633:B1 0.00120668
2 *751:X 0.00120668
3 *633:B1 *612:B_N 6.05239e-06
4 *633:B1 *617:A1 5.97622e-05
5 *633:B1 *617:B2 0.000229953
6 *633:B1 *633:A1 0.000450808
7 *633:B1 *636:A1 1.33293e-05
8 *633:B1 *636:A2 0.000390466
9 *633:B1 *692:D 3.30017e-05
10 *633:B1 *694:D 9.8004e-05
11 *633:B1 *707:D 2.26739e-05
12 *633:B1 *750:A 0.000197269
13 *633:B1 *201:12 4.43871e-06
14 *633:B1 *201:29 2.23485e-05
15 *633:B1 *207:14 4.16262e-05
16 *617:A2 *633:B1 7.68414e-06
17 *633:A2 *633:B1 2.54431e-05
18 *636:B1 *633:B1 0.000219767
19 *694:CLK *633:B1 3.1676e-05
20 *759:A *633:B1 9.65915e-05
*RES
1 *751:X *633:B1 28.995 
*END

*D_NET *160 0.000404793
*CONN
*I *692:D I *D sky130_fd_sc_hd__dfrtp_2
*I *759:X O *D sky130_fd_sc_hd__dlygate4sd3_1
*CAP
1 *692:D 0.000151883
2 *759:X 0.000151883
3 *633:B1 *692:D 3.30017e-05
4 *88:10 *692:D 3.62197e-05
5 *140:53 *692:D 3.18064e-05
*RES
1 *759:X *692:D 9.36375 
*END

*D_NET *161 0.00406996
*CONN
*I *632:B1 I *D sky130_fd_sc_hd__a21o_1
*I *642:C1 I *D sky130_fd_sc_hd__a311o_1
*I *621:B1 I *D sky130_fd_sc_hd__a21o_1
*I *760:X O *D sky130_fd_sc_hd__clkdlybuf4s25_1
*CAP
1 *632:B1 0
2 *642:C1 0.00044259
3 *621:B1 0.000162837
4 *760:X 0.000462989
5 *161:29 0.000460546
6 *161:14 0.000643782
7 *621:B1 *620:A 0
8 *642:C1 *642:B1 0.000382472
9 *642:C1 *673:A 0.000199496
10 *642:C1 *203:10 0
11 *161:14 *679:A1 0.000718683
12 *161:14 *219:8 6.74384e-05
13 *161:29 *673:A 7.38676e-05
14 *632:A2 *621:B1 0
15 *673:B *621:B1 4.62212e-05
16 *703:D *642:C1 6.55328e-05
17 *706:CLK *642:C1 2.75229e-05
18 *706:D *642:C1 9.45636e-05
19 *706:RESET_B *642:C1 2.56752e-06
20 *127:96 *642:C1 0.000114858
21 *127:96 *161:29 4.88478e-05
22 *127:102 *621:B1 2.97004e-06
23 *127:102 *161:14 2.03578e-05
24 *127:132 *642:C1 0
25 *127:132 *161:14 3.18137e-05
26 *143:14 *642:C1 0
*RES
1 *760:X *161:14 12.705 
2 *161:14 *621:B1 6.285 
3 *161:14 *161:29 2.795 
4 *161:29 *642:C1 15.83 
5 *161:29 *632:B1 1.6 
*END

*D_NET *162 0.00061477
*CONN
*I *699:D I *D sky130_fd_sc_hd__dfrtp_1
*I *761:X O *D sky130_fd_sc_hd__dlygate4sd3_1
*CAP
1 *699:D 0.000210691
2 *761:X 0.000210691
3 *589:S *699:D 2.86975e-05
4 *82:83 *699:D 7.4027e-05
5 *144:35 *699:D 9.06623e-05
*RES
1 *761:X *699:D 10.365 
*END

*D_NET *163 0.000917624
*CONN
*I *620:A I *D sky130_fd_sc_hd__inv_2
*I *632:A1 I *D sky130_fd_sc_hd__a21o_1
*I *762:X O *D sky130_fd_sc_hd__dlygate4sd3_1
*CAP
1 *620:A 0.000109112
2 *632:A1 0.000154982
3 *762:X 0
4 *163:4 0.000264094
5 *632:A1 *673:A 0.000238137
6 *621:A2 *620:A 0.000121261
7 *621:B1 *620:A 0
8 *632:A2 *620:A 0
9 *112:6 *620:A 3.00381e-05
*RES
1 *762:X *163:4 1.6 
2 *163:4 *632:A1 3.775 
3 *163:4 *620:A 7.88 
*END

*D_NET *164 0.00189818
*CONN
*I *642:B1 I *D sky130_fd_sc_hd__a311o_1
*I *763:X O *D sky130_fd_sc_hd__dlygate4sd3_1
*CAP
1 *642:B1 0.000715471
2 *763:X 0.000715471
3 *642:B1 *760:A 2.11084e-05
4 *642:C1 *642:B1 0.000382472
5 *661:A *642:B1 6.36594e-05
*RES
1 *763:X *642:B1 12.2 
*END

*D_NET *165 0.00121205
*CONN
*I *611:B2 I *D sky130_fd_sc_hd__o22a_1
*I *764:X O *D sky130_fd_sc_hd__dlygate4sd3_1
*CAP
1 *611:B2 0.000414826
2 *764:X 0.000414826
3 *611:B2 *207:27 3.98029e-05
4 *727:A *611:B2 0.000342594
*RES
1 *764:X *611:B2 12.825 
*END

*D_NET *166 0.00451724
*CONN
*I *675:A1 I *D sky130_fd_sc_hd__mux2_1
*I *768:X O *D sky130_fd_sc_hd__clkbuf_1
*CAP
1 *675:A1 0.00148238
2 *768:X 0.00148238
3 *675:A1 *592:B1 0
4 *675:A1 *612:A 7.13175e-05
5 *675:A1 *616:A1 0
6 *675:A1 *617:A1 4.91927e-05
7 *675:A1 *202:12 0
8 *675:A1 *205:21 0
9 *603:D *675:A1 0
10 *605:A *675:A1 0
11 *616:B1_N *675:A1 0.00053179
12 *619:A *675:A1 0.000111272
13 *692:RESET_B *675:A1 3.89528e-05
14 *700:D *675:A1 9.50687e-05
15 *709:D *675:A1 0
16 *713:RESET_B *675:A1 5.13155e-05
17 *768:A *675:A1 3.72916e-05
18 *780:A *675:A1 0
19 *85:70 *675:A1 0.000234487
20 *107:10 *675:A1 0.000131045
21 *127:30 *675:A1 0.000181271
22 *127:82 *675:A1 1.94805e-05
23 *129:10 *675:A1 0
24 *129:40 *675:A1 0
*RES
1 *768:X *675:A1 36.285 
*END

*D_NET *167 0.00266289
*CONN
*I *707:D I *D sky130_fd_sc_hd__dfrtp_1
*I *730:X O *D sky130_fd_sc_hd__dlygate4sd3_1
*CAP
1 *707:D 0.000811867
2 *730:X 0.000811867
3 *584:A2 *707:D 9.79172e-05
4 *633:A2 *707:D 0.000120219
5 *633:B1 *707:D 2.26739e-05
6 *702:D *707:D 0.000136877
7 *707:RESET_B *707:D 0.000168511
8 *759:A *707:D 0.000233466
9 *764:A *707:D 4.52365e-05
10 *140:14 *707:D 0.000178759
11 *140:40 *707:D 3.54926e-05
*RES
1 *730:X *707:D 22.95 
*END

*D_NET *168 0.00109451
*CONN
*I *609:A I *D sky130_fd_sc_hd__inv_2
*I *610:A2 I *D sky130_fd_sc_hd__o21a_1
*I *731:X O *D sky130_fd_sc_hd__dlygate4sd3_1
*CAP
1 *609:A 0.000187396
2 *610:A2 0.000210022
3 *731:X 0
4 *168:4 0.000397418
5 *609:A *580:A 9.51346e-05
6 *595:S *610:A2 8.90609e-05
7 *82:18 *610:A2 7.01359e-05
8 *85:16 *609:A 2.23253e-05
9 *85:16 *610:A2 2.30184e-05
*RES
1 *731:X *168:4 1.6 
2 *168:4 *610:A2 8.645 
3 *168:4 *609:A 9.125 
*END

*D_NET *169 0.000466743
*CONN
*I *685:A0 I *D sky130_fd_sc_hd__mux2_1
*I *732:X O *D sky130_fd_sc_hd__dlygate4sd3_1
*CAP
1 *685:A0 0.000183627
2 *732:X 0.000183627
3 *685:A0 *210:14 0
4 *641:A *685:A0 7.07032e-05
5 *129:55 *685:A0 2.87867e-05
*RES
1 *732:X *685:A0 9.9 
*END

*D_NET *170 0.000672056
*CONN
*I *683:A0 I *D sky130_fd_sc_hd__mux2_1
*I *733:X O *D sky130_fd_sc_hd__dlygate4sd3_1
*CAP
1 *683:A0 0.00013438
2 *733:X 0.00013438
3 *683:A0 *683:A1 0.000162311
4 *683:A0 *733:A 0
5 *653:A *683:A0 0.000100139
6 *683:S *683:A0 8.65905e-05
7 *776:A *683:A0 5.4256e-05
*RES
1 *733:X *683:A0 10.665 
*END

*D_NET *171 7.60921e-05
*CONN
*I *623:B2 I *D sky130_fd_sc_hd__a32o_1
*I *734:X O *D sky130_fd_sc_hd__dlygate4sd3_1
*CAP
1 *623:B2 1.50923e-05
2 *734:X 1.50923e-05
3 *623:B2 *198:16 1.83847e-05
4 *623:B2 *208:62 2.75229e-05
*RES
1 *734:X *623:B2 3.65 
*END

*D_NET *172 0.000334106
*CONN
*I *697:D I *D sky130_fd_sc_hd__dfrtp_1
*I *735:X O *D sky130_fd_sc_hd__dlygate4sd3_1
*CAP
1 *697:D 0.000130438
2 *735:X 0.000130438
3 *697:D *209:87 3.45679e-05
4 *735:A *697:D 0
5 *776:A *697:D 3.86607e-05
*RES
1 *735:X *697:D 9.225 
*END

*D_NET *173 0.000373957
*CONN
*I *677:A0 I *D sky130_fd_sc_hd__mux2_1
*I *736:X O *D sky130_fd_sc_hd__dlygate4sd3_1
*CAP
1 *677:A0 7.84932e-05
2 *736:X 7.84932e-05
3 *677:A0 *677:A1 7.33728e-05
4 *129:80 *677:A0 7.08971e-05
5 *129:86 *677:A0 7.27003e-05
*RES
1 *736:X *677:A0 5.375 
*END

*D_NET *174 0.001189
*CONN
*I *635:A I *D sky130_fd_sc_hd__inv_2
*I *737:X O *D sky130_fd_sc_hd__dlygate4sd3_1
*CAP
1 *635:A 0.000205678
2 *737:X 0.000205678
3 *635:A *198:16 0.000283342
4 *673:B *635:A 8.49205e-05
5 *673:C *635:A 0.000152366
6 *691:SET_B *635:A 7.53115e-05
7 *142:62 *635:A 0.000181703
*RES
1 *737:X *635:A 13.965 
*END

*D_NET *175 0.000533701
*CONN
*I *694:D I *D sky130_fd_sc_hd__dfrtp_1
*I *738:X O *D sky130_fd_sc_hd__dlygate4sd3_1
*CAP
1 *694:D 6.81358e-05
2 *738:X 6.81358e-05
3 *694:D *201:29 9.47454e-05
4 *617:A2 *694:D 0.000160635
5 *633:B1 *694:D 9.8004e-05
6 *694:CLK *694:D 4.40446e-05
*RES
1 *738:X *694:D 9.81 
*END

*D_NET *176 0.000299137
*CONN
*I *675:A0 I *D sky130_fd_sc_hd__mux2_1
*I *739:X O *D sky130_fd_sc_hd__dlygate4sd3_1
*CAP
1 *675:A0 9.87599e-05
2 *739:X 9.87599e-05
3 *675:A0 *739:A 4.85494e-05
4 *675:S *675:A0 5.30673e-05
*RES
1 *739:X *675:A0 5.03 
*END

*D_NET *177 0.000393865
*CONN
*I *677:A1 I *D sky130_fd_sc_hd__mux2_1
*I *769:X O *D sky130_fd_sc_hd__clkbuf_1
*CAP
1 *677:A1 0.000124066
2 *769:X 0.000124066
3 *677:A1 *741:A 0
4 *677:A1 *743:A 7.23602e-05
5 *677:A0 *677:A1 7.33728e-05
*RES
1 *769:X *677:A1 9.21 
*END

*D_NET *178 0.000465083
*CONN
*I *681:A0 I *D sky130_fd_sc_hd__mux2_1
*I *741:X O *D sky130_fd_sc_hd__dlygate4sd3_1
*CAP
1 *681:A0 0.000167246
2 *741:X 0.000167246
3 *681:A0 *681:A1 4.99619e-05
4 *681:S *681:A0 8.06286e-05
5 *689:A1 *681:A0 0
*RES
1 *741:X *681:A0 9.555 
*END

*D_NET *179 0.000775875
*CONN
*I *687:A0 I *D sky130_fd_sc_hd__mux2_1
*I *742:X O *D sky130_fd_sc_hd__dlygate4sd3_1
*CAP
1 *687:A0 0.000362384
2 *742:X 0.000362384
3 *687:S *687:A0 5.11067e-05
*RES
1 *742:X *687:A0 12.285 
*END

*D_NET *180 0.000560284
*CONN
*I *689:A0 I *D sky130_fd_sc_hd__mux2_1
*I *743:X O *D sky130_fd_sc_hd__dlygate4sd3_1
*CAP
1 *689:A0 0.000178263
2 *743:X 0.000178263
3 *689:A0 *741:A 7.23602e-05
4 *681:S *689:A0 8.57024e-05
5 *689:A1 *689:A0 0
6 *129:86 *689:A0 4.56956e-05
*RES
1 *743:X *689:A0 9.9 
*END

*D_NET *181 0.00133625
*CONN
*I *679:A0 I *D sky130_fd_sc_hd__mux2_1
*I *744:X O *D sky130_fd_sc_hd__dlygate4sd3_1
*CAP
1 *679:A0 0.000606884
2 *744:X 0.000606884
3 *680:A *679:A0 0
4 *687:S *679:A0 0.000122483
*RES
1 *744:X *679:A0 16.905 
*END

*D_NET *182 0.000999088
*CONN
*I *627:B1 I *D sky130_fd_sc_hd__a21oi_1
*I *745:X O *D sky130_fd_sc_hd__dlygate4sd3_1
*CAP
1 *627:B1 0.000265122
2 *745:X 0.000265122
3 *627:B1 *748:A 0
4 *627:B1 *208:10 0
5 *627:A2 *627:B1 3.26889e-05
6 *628:A1 *627:B1 3.67779e-05
7 *628:B1 *627:B1 1.83756e-05
8 *630:B1 *627:B1 0.000242308
9 *695:RESET_B *627:B1 0
10 *696:D *627:B1 0.000138695
*RES
1 *745:X *627:B1 12.3 
*END

*D_NET *183 0.000358307
*CONN
*I *584:B1 I *D sky130_fd_sc_hd__o21a_1
*I *746:X O *D sky130_fd_sc_hd__dlygate4sd3_1
*CAP
1 *584:B1 0.000118874
2 *746:X 0.000118874
3 *585:B1 *584:B1 7.1624e-05
4 *601:S *584:B1 4.89362e-05
*RES
1 *746:X *584:B1 9.39 
*END

*D_NET *184 0.00208628
*CONN
*I *617:A1 I *D sky130_fd_sc_hd__a22o_1
*I *613:A1 I *D sky130_fd_sc_hd__a22o_1
*I *747:X O *D sky130_fd_sc_hd__dlygate4sd3_1
*CAP
1 *617:A1 0.000200457
2 *613:A1 0.000186532
3 *747:X 0
4 *184:4 0.000386989
5 *617:A1 *612:A 4.9968e-05
6 *617:A1 *617:B2 4.21889e-05
7 *617:A1 *205:21 5.02217e-05
8 *613:A2 *613:A1 0.000399804
9 *613:B1 *613:A1 0.000206285
10 *617:B1 *617:A1 4.82919e-05
11 *618:A1 *617:A1 7.21296e-06
12 *618:S *613:A1 8.49205e-05
13 *619:A *613:A1 8.40213e-05
14 *633:B1 *617:A1 5.97622e-05
15 *675:A1 *617:A1 4.91927e-05
16 *87:16 *613:A1 0.000230435
*RES
1 *747:X *184:4 1.6 
2 *184:4 *613:A1 7.495 
3 *184:4 *617:A1 9.575 
*END

*D_NET *185 0.000829956
*CONN
*I *630:A1 I *D sky130_fd_sc_hd__a21oi_1
*I *748:X O *D sky130_fd_sc_hd__dlygate4sd3_1
*CAP
1 *630:A1 0.000360926
2 *748:X 0.000360926
3 *630:A1 *745:A 3.39426e-05
4 *630:A2 *630:A1 3.6227e-05
5 *749:A *630:A1 3.79351e-05
*RES
1 *748:X *630:A1 11.625 
*END

*D_NET *186 0.000349612
*CONN
*I *695:D I *D sky130_fd_sc_hd__dfrtp_4
*I *749:X O *D sky130_fd_sc_hd__dlygate4sd3_1
*CAP
1 *695:D 0.000117954
2 *749:X 0.000117954
3 *695:D *745:A 0
4 *630:A2 *695:D 0.000113704
*RES
1 *749:X *695:D 9.585 
*END

*D_NET *187 0.000409807
*CONN
*I *613:B2 I *D sky130_fd_sc_hd__a22o_1
*I *750:X O *D sky130_fd_sc_hd__dlygate4sd3_1
*CAP
1 *613:B2 0.000116832
2 *750:X 0.000116832
3 *613:B2 *202:34 9.21008e-05
4 *613:B1 *613:B2 8.40425e-05
*RES
1 *750:X *613:B2 9.48 
*END

*D_NET *188 0.00720043
*CONN
*I *679:A1 I *D sky130_fd_sc_hd__mux2_1
*I *770:X O *D sky130_fd_sc_hd__buf_1
*CAP
1 *679:A1 0.00224759
2 *770:X 0.00224759
3 *679:A1 *760:A 0.00016063
4 *679:A1 *203:10 1.59999e-05
5 *671:A *679:A1 4.66108e-05
6 *698:CLK *679:A1 0.000360449
7 *703:CLK *679:A1 0.00024985
8 *705:D *679:A1 9.78429e-05
9 *775:A *679:A1 7.89767e-05
10 *781:A *679:A1 0.000141606
11 *127:82 *679:A1 2.39856e-05
12 *129:20 *679:A1 0.000810621
13 *161:14 *679:A1 0.000718683
*RES
1 *770:X *679:A1 46.95 
*END

*D_NET *189 0.000367275
*CONN
*I *595:A1 I *D sky130_fd_sc_hd__mux2_1
*I *752:X O *D sky130_fd_sc_hd__dlygate4sd3_1
*CAP
1 *595:A1 0.000133696
2 *752:X 0.000133696
3 *595:A0 *595:A1 5.09431e-05
4 *595:S *595:A1 4.89395e-05
*RES
1 *752:X *595:A1 5.72 
*END

*D_NET *190 0.000322735
*CONN
*I *598:A1 I *D sky130_fd_sc_hd__mux2_1
*I *753:X O *D sky130_fd_sc_hd__dlygate4sd3_1
*CAP
1 *598:A1 4.10273e-05
2 *753:X 4.10273e-05
3 *598:S *598:A1 2.16833e-05
4 *601:A0 *598:A1 5.83121e-06
5 *753:A *598:A1 4.82919e-05
6 *82:126 *598:A1 0.000164874
*RES
1 *753:X *598:A1 4.685 
*END

*D_NET *191 0.000650296
*CONN
*I *592:B1 I *D sky130_fd_sc_hd__o31a_1
*I *754:X O *D sky130_fd_sc_hd__dlygate4sd3_1
*CAP
1 *592:B1 0.000120212
2 *754:X 0.000120212
3 *592:A2 *592:B1 0.000201508
4 *592:A3 *592:B1 0.000199833
5 *603:D *592:B1 8.53113e-06
6 *675:A1 *592:B1 0
7 *139:10 *592:B1 0
*RES
1 *754:X *592:B1 10.41 
*END

*D_NET *192 0.00112685
*CONN
*I *601:A1 I *D sky130_fd_sc_hd__mux2_1
*I *755:X O *D sky130_fd_sc_hd__dlygate4sd3_1
*CAP
1 *601:A1 0.00034437
2 *755:X 0.00034437
3 *601:S *601:A1 0.000107235
4 *127:43 *601:A1 0.00024157
5 *140:77 *601:A1 8.93046e-05
*RES
1 *755:X *601:A1 13.32 
*END

*D_NET *193 0.000398159
*CONN
*I *589:A1 I *D sky130_fd_sc_hd__mux2_1
*I *756:X O *D sky130_fd_sc_hd__dlygate4sd3_1
*CAP
1 *589:A1 0.000158145
2 *756:X 0.000158145
3 *589:S *589:A1 4.66742e-05
4 *637:A *589:A1 2.8185e-05
5 *637:B *589:A1 7.00889e-06
*RES
1 *756:X *589:A1 5.72 
*END

*D_NET *194 0.00042944
*CONN
*I *610:A1 I *D sky130_fd_sc_hd__o21a_1
*I *757:X O *D sky130_fd_sc_hd__dlygate4sd3_1
*CAP
1 *610:A1 0.000160332
2 *757:X 0.000160332
3 *610:A1 *580:A 7.95327e-05
4 *643:B *610:A1 2.50776e-05
5 *82:18 *610:A1 4.1652e-06
*RES
1 *757:X *610:A1 9.585 
*END

*D_NET *195 0.000392439
*CONN
*I *607:A0 I *D sky130_fd_sc_hd__mux2_1
*I *758:X O *D sky130_fd_sc_hd__dlygate4sd3_1
*CAP
1 *607:A0 0.000141602
2 *758:X 0.000141602
3 *82:46 *607:A0 4.77807e-05
4 *82:55 *607:A0 6.14541e-05
*RES
1 *758:X *607:A0 5.72 
*END

*D_NET *196 0.000396646
*CONN
*I *681:A1 I *D sky130_fd_sc_hd__mux2_1
*I *771:X O *D sky130_fd_sc_hd__clkbuf_1
*CAP
1 *681:A1 0.000119984
2 *771:X 0.000119984
3 *681:A0 *681:A1 4.99619e-05
4 *681:S *681:A1 0
5 *780:A *681:A1 0.000106716
*RES
1 *771:X *681:A1 9.57 
*END

*D_NET *197 0.00287812
*CONN
*I *683:A1 I *D sky130_fd_sc_hd__mux2_1
*I *772:X O *D sky130_fd_sc_hd__clkbuf_1
*CAP
1 *683:A1 0.00118726
2 *772:X 0.00118726
3 *683:A1 *745:A 0
4 *630:A2 *683:A1 1.83756e-05
5 *630:B1 *683:A1 0.000100891
6 *653:A *683:A1 4.60584e-05
7 *683:A0 *683:A1 0.000162311
8 *695:CLK *683:A1 3.26889e-05
9 *697:RESET_B *683:A1 0.0001249
10 *749:A *683:A1 0
11 *772:A *683:A1 1.83847e-05
12 *776:A *683:A1 0
*RES
1 *772:X *683:A1 24.45 
*END

*D_NET *198 0.00752539
*CONN
*I *685:A1 I *D sky130_fd_sc_hd__mux2_1
*I *773:X O *D sky130_fd_sc_hd__buf_1
*CAP
1 *685:A1 0.000160504
2 *773:X 0.00214608
3 *198:16 0.00230658
4 *685:A1 *208:62 0.000257257
5 *198:16 *642:A1 0.000304647
6 *198:16 *673:A 3.89528e-05
7 *198:16 *203:10 0
8 *198:16 *207:27 0.0001785
9 *198:16 *208:52 0.000112123
10 *198:16 *208:62 1.00113e-05
11 *198:16 *209:10 2.54692e-05
12 *198:16 *220:47 2.60986e-05
13 *623:B1 *198:16 9.73145e-05
14 *623:B2 *198:16 1.83847e-05
15 *635:A *198:16 0.000283342
16 *636:B1 *198:16 0.000642653
17 *645:A *198:16 3.89366e-05
18 *673:C *198:16 0
19 *685:S *685:A1 4.99619e-05
20 *691:D *198:16 7.09016e-05
21 *694:RESET_B *198:16 8.78735e-05
22 *698:SET_B *198:16 8.71001e-05
23 *701:RESET_B *198:16 0
24 *706:D *198:16 0.000244926
25 *724:A *198:16 2.28415e-05
26 *735:A *198:16 8.53113e-06
27 *773:A *198:16 1.83847e-05
28 *91:27 *198:16 0
29 *126:16 *198:16 0
30 *126:18 *198:16 0
31 *126:26 *198:16 0
32 *126:30 *198:16 0
33 *126:38 *198:16 0
34 *142:12 *198:16 4.41468e-05
35 *142:62 *198:16 1.18673e-05
36 *143:10 *198:16 1.5841e-05
37 *143:14 *198:16 7.6664e-05
38 *143:45 *198:16 0.000139495
*RES
1 *773:X *198:16 48.335 
2 *198:16 *685:A1 5.5 
*END

*D_NET *199 0.000631947
*CONN
*I *687:A1 I *D sky130_fd_sc_hd__mux2_1
*I *774:X O *D sky130_fd_sc_hd__clkbuf_1
*CAP
1 *687:A1 0.000315974
2 *774:X 0.000315974
*RES
1 *774:X *687:A1 11.1 
*END

*D_NET *200 0.000655633
*CONN
*I *576:A I *D sky130_fd_sc_hd__buf_2
*I *591:A I *D sky130_fd_sc_hd__inv_2
*I *700:Q O *D sky130_fd_sc_hd__dfrtp_1
*CAP
1 *576:A 4.764e-05
2 *591:A 6.96589e-05
3 *700:Q 0
4 *200:4 0.000117299
5 *591:A *201:68 4.77807e-05
6 *579:C *576:A 2.08971e-05
7 *581:A2 *591:A 8.41384e-05
8 *700:RESET_B *591:A 7.03276e-05
9 *81:8 *576:A 5.83121e-06
10 *81:10 *591:A 0.000110791
11 *85:49 *576:A 4.77769e-05
12 *90:20 *591:A 1.19928e-05
13 *139:10 *591:A 2.14995e-05
*RES
1 *700:Q *200:4 1.6 
2 *200:4 *591:A 7.775 
3 *200:4 *576:A 2.665 
*END

*D_NET *201 0.010337
*CONN
*I *594:A I *D sky130_fd_sc_hd__or3_1
*I *579:B I *D sky130_fd_sc_hd__or3_1
*I *592:A1 I *D sky130_fd_sc_hd__o31a_1
*I *603:B I *D sky130_fd_sc_hd__or4_1
*I *585:A1 I *D sky130_fd_sc_hd__a41o_1
*I *586:A I *D sky130_fd_sc_hd__inv_2
*I *614:A I *D sky130_fd_sc_hd__nor2_1
*I *578:A1 I *D sky130_fd_sc_hd__o21ai_1
*I *582:A I *D sky130_fd_sc_hd__and2_1
*I *617:B2 I *D sky130_fd_sc_hd__a22o_1
*I *701:Q O *D sky130_fd_sc_hd__dfrtp_4
*CAP
1 *594:A 0
2 *579:B 0
3 *592:A1 0.00025985
4 *603:B 0
5 *585:A1 0.00070999
6 *586:A 0.000102506
7 *614:A 0
8 *578:A1 0.000103135
9 *582:A 2.0486e-05
10 *617:B2 5.97895e-05
11 *701:Q 0.000730864
12 *201:110 0.000287849
13 *201:91 0.00106337
14 *201:89 0.000387171
15 *201:72 0.000215025
16 *201:68 0.000194547
17 *201:50 0.000194488
18 *201:42 0.000354198
19 *201:29 0.000436054
20 *201:12 0.0010872
21 *578:A1 *202:60 0.000120417
22 *578:A1 *202:71 0.000187602
23 *582:A *612:B_N 8.35157e-05
24 *586:A *579:A 5.08321e-05
25 *201:29 *612:B_N 1.56261e-05
26 *201:29 *636:A1 0
27 *201:42 *612:B_N 1.46781e-05
28 *201:50 *202:71 2.21074e-05
29 *201:72 *579:A 7.32671e-05
30 *201:110 *603:A 7.23602e-05
31 *581:A2 *201:68 4.89049e-05
32 *582:B *201:42 4.76107e-05
33 *582:B *201:68 2.10929e-05
34 *591:A *201:68 4.77807e-05
35 *592:A2 *592:A1 0.000387003
36 *592:A3 *592:A1 5.4155e-06
37 *593:A4 *592:A1 1.15429e-05
38 *594:B *201:68 0.000156778
39 *594:C *201:68 4.77769e-05
40 *598:S *585:A1 7.40754e-05
41 *606:B *586:A 0.000141775
42 *614:B *201:50 8.75786e-06
43 *615:B *201:50 0.000156767
44 *617:A1 *617:B2 4.21889e-05
45 *617:A2 *617:B2 4.82863e-05
46 *617:A2 *201:29 0
47 *617:B1 *617:B2 4.82919e-05
48 *618:A1 *201:29 0
49 *633:B1 *617:B2 0.000229953
50 *633:B1 *201:12 4.43871e-06
51 *633:B1 *201:29 2.23485e-05
52 *656:A *201:68 8.35157e-05
53 *656:A *201:89 4.00406e-05
54 *694:D *201:29 9.47454e-05
55 *700:CLK *585:A1 0.000145654
56 *701:D *201:12 9.98747e-05
57 *730:A *201:29 9.12494e-06
58 *730:A *201:42 1.7211e-05
59 *730:A *201:50 4.41506e-05
60 *81:10 *201:68 1.10951e-05
61 *81:12 *201:68 5.37209e-05
62 *81:29 *201:50 9.55262e-06
63 *81:31 *201:50 1.54665e-05
64 *81:69 *585:A1 1.08105e-05
65 *85:49 *586:A 0.000203938
66 *85:49 *201:91 0.000214535
67 *85:70 *578:A1 8.35118e-05
68 *87:12 *582:A 4.90291e-05
69 *87:12 *201:29 6.20478e-05
70 *90:20 *201:68 4.12775e-05
71 *91:10 *201:72 8.33066e-06
72 *91:27 *201:72 0.000123194
73 *91:27 *201:89 0.000115039
74 *94:23 *592:A1 3.26889e-05
75 *94:23 *201:110 7.23602e-05
76 *110:12 *201:12 0
77 *126:56 *201:12 0
78 *139:10 *201:42 0.000132827
79 *139:10 *201:68 0.000165586
*RES
1 *701:Q *201:12 12.255 
2 *201:12 *617:B2 5.79 
3 *201:12 *201:29 4.74 
4 *201:29 *582:A 4.395 
5 *201:29 *201:42 2.595 
6 *201:42 *201:50 4.55 
7 *201:50 *578:A1 4.465 
8 *201:50 *614:A 1.6 
9 *201:42 *201:68 6.665 
10 *201:68 *201:72 3.635 
11 *201:72 *586:A 6.495 
12 *201:72 *201:89 3.38 
13 *201:89 *201:91 3.9 
14 *201:91 *585:A1 13.82 
15 *201:91 *201:110 4.87 
16 *201:110 *603:B 1.6 
17 *201:110 *592:A1 6.475 
18 *201:89 *579:B 1.6 
19 *201:68 *594:A 1.6 
*END

*D_NET *202 0.0124042
*CONN
*I *603:A I *D sky130_fd_sc_hd__or4_1
*I *579:A I *D sky130_fd_sc_hd__or3_1
*I *587:D_N I *D sky130_fd_sc_hd__or4b_1
*I *636:A1 I *D sky130_fd_sc_hd__a32o_1
*I *578:B1 I *D sky130_fd_sc_hd__o21ai_1
*I *597:A I *D sky130_fd_sc_hd__or4_1
*I *600:A I *D sky130_fd_sc_hd__or4_1
*I *750:A I *D sky130_fd_sc_hd__dlygate4sd3_1
*I *583:A I *D sky130_fd_sc_hd__nand2_1
*I *702:Q O *D sky130_fd_sc_hd__dfrtp_4
*CAP
1 *603:A 0.000252695
2 *579:A 0.000165621
3 *587:D_N 0.000661392
4 *636:A1 0.000260556
5 *578:B1 0
6 *597:A 9.44614e-05
7 *600:A 5.81499e-05
8 *750:A 8.8524e-05
9 *583:A 0
10 *702:Q 0.000853588
11 *202:79 0.00097686
12 *202:77 0.000467319
13 *202:71 0.000577397
14 *202:60 0.000124232
15 *202:45 0.000163739
16 *202:34 0.00041093
17 *202:21 0.000581681
18 *202:12 0.00101693
19 *587:D_N *580:C 5.19006e-06
20 *587:D_N *587:C 2.10905e-05
21 *636:A1 *612:B_N 0.000281629
22 *636:A1 *636:A2 1.61831e-05
23 *202:34 *633:A1 4.05358e-05
24 *578:A1 *202:60 0.000120417
25 *578:A1 *202:71 0.000187602
26 *579:C *579:A 8.88958e-05
27 *581:A1 *603:A 0.000124496
28 *581:A1 *202:71 8.33066e-06
29 *582:B *636:A1 1.21329e-05
30 *582:B *202:79 3.29496e-05
31 *583:B *202:12 5.53249e-06
32 *583:B *202:21 0.00019194
33 *583:B *202:34 5.18254e-05
34 *584:A1 *600:A 0.000122797
35 *586:A *579:A 5.08321e-05
36 *592:A2 *603:A 4.82919e-05
37 *592:A3 *603:A 8.65961e-05
38 *600:C *600:A 3.01547e-05
39 *600:C *202:45 4.66108e-05
40 *603:D *603:A 0.000248281
41 *611:A2 *587:D_N 0.000485537
42 *611:B1 *587:D_N 3.25525e-05
43 *613:B2 *202:34 9.21008e-05
44 *615:B *636:A1 0.000109489
45 *616:B1_N *202:12 0
46 *617:A2 *636:A1 8.96077e-05
47 *618:S *597:A 5.0096e-05
48 *618:S *202:34 0.000216722
49 *619:A *202:45 4.77807e-05
50 *619:A *202:60 7.38779e-05
51 *633:B1 *636:A1 1.33293e-05
52 *633:B1 *750:A 0.000197269
53 *636:A3 *636:A1 0.000180878
54 *636:B1 *636:A1 0
55 *656:A *579:A 0.000111293
56 *675:A1 *202:12 0
57 *700:D *597:A 0.000132821
58 *702:CLK *202:21 0.00013629
59 *702:D *202:12 1.27575e-05
60 *730:A *587:D_N 6.43169e-05
61 *730:A *202:71 4.28112e-06
62 *730:A *202:77 6.14645e-05
63 *777:A *202:12 1.7386e-05
64 *81:12 *579:A 1.69364e-05
65 *81:12 *202:79 9.23804e-06
66 *81:29 *202:77 0.000194295
67 *81:31 *202:60 7.26398e-05
68 *81:31 *202:71 0.000235378
69 *81:31 *202:77 4.77807e-05
70 *81:33 *202:45 3.57349e-05
71 *81:33 *202:60 0.000159179
72 *81:69 *597:A 0.000134248
73 *85:49 *579:A 1.32026e-05
74 *85:70 *600:A 1.08758e-05
75 *85:70 *202:45 1.33285e-05
76 *85:70 *202:60 1.43622e-05
77 *86:10 *597:A 2.49909e-05
78 *88:10 *202:12 0.000136853
79 *90:20 *579:A 3.1191e-05
80 *91:10 *579:A 3.52569e-05
81 *91:10 *587:D_N 7.47262e-06
82 *91:10 *202:79 2.69443e-06
83 *94:23 *603:A 0.000275302
84 *127:30 *597:A 1.08758e-05
85 *139:10 *603:A 3.52569e-05
86 *139:10 *202:71 1.30872e-05
87 *201:29 *636:A1 0
88 *201:50 *202:71 2.21074e-05
89 *201:72 *579:A 7.32671e-05
90 *201:110 *603:A 7.23602e-05
*RES
1 *702:Q *202:12 13.815 
2 *202:12 *583:A 3.6 
3 *202:12 *202:21 3.93 
4 *202:21 *750:A 5.43 
5 *202:21 *202:34 8.48 
6 *202:34 *600:A 3.1 
7 *202:34 *202:45 0.795 
8 *202:45 *597:A 8.195 
9 *202:45 *202:60 2.175 
10 *202:60 *578:B1 1.6 
11 *202:60 *202:71 4.79 
12 *202:71 *202:77 7.21 
13 *202:77 *202:79 1.125 
14 *202:79 *636:A1 9.81 
15 *202:79 *587:D_N 12.36 
16 *202:77 *579:A 8.025 
17 *202:71 *603:A 10.665 
*END

*D_NET *203 0.00134744
*CONN
*I *737:A I *D sky130_fd_sc_hd__dlygate4sd3_1
*I *577:A I *D sky130_fd_sc_hd__buf_2
*I *698:Q O *D sky130_fd_sc_hd__dfstp_1
*CAP
1 *737:A 7.90645e-05
2 *577:A 0.000209508
3 *698:Q 0.000230194
4 *203:10 0.000518766
5 *203:10 *673:A 3.89528e-05
6 *642:C1 *203:10 0
7 *673:B *737:A 6.02012e-05
8 *673:C *577:A 0.000129224
9 *679:A1 *203:10 1.59999e-05
10 *691:SET_B *577:A 6.5525e-05
11 *82:83 *577:A 0
12 *198:16 *203:10 0
*RES
1 *698:Q *203:10 7.2975 
2 *203:10 *577:A 7.785 
3 *203:10 *737:A 5.085 
*END

*D_NET *204 0.00135123
*CONN
*I *731:A I *D sky130_fd_sc_hd__dlygate4sd3_1
*I *580:C I *D sky130_fd_sc_hd__or3_2
*I *587:C I *D sky130_fd_sc_hd__or4b_1
*I *691:Q O *D sky130_fd_sc_hd__dfstp_1
*CAP
1 *731:A 6.19961e-05
2 *580:C 0.000143987
3 *587:C 5.21697e-05
4 *691:Q 2.02293e-05
5 *204:12 0.000298016
6 *204:6 0.000184085
7 *587:D_N *580:C 5.19006e-06
8 *587:D_N *587:C 2.10905e-05
9 *595:S *731:A 8.88041e-05
10 *610:B1 *580:C 4.77719e-05
11 *611:A2 *587:C 8.52845e-05
12 *643:B *204:12 4.1652e-06
13 *712:CLK *580:C 7.74985e-05
14 *712:CLK *587:C 0.000197839
15 *82:18 *204:12 6.30983e-05
*RES
1 *691:Q *204:6 1.8775 
2 *204:6 *204:12 5.635 
3 *204:12 *587:C 3.43 
4 *204:12 *580:C 4.15 
5 *204:6 *731:A 3.115 
*END

*D_NET *205 0.00569315
*CONN
*I *747:A I *D sky130_fd_sc_hd__dlygate4sd3_1
*I *636:A2 I *D sky130_fd_sc_hd__a32o_1
*I *612:A I *D sky130_fd_sc_hd__or2b_1
*I *618:A0 I *D sky130_fd_sc_hd__mux2_1
*I *633:A1 I *D sky130_fd_sc_hd__a21o_1
*I *616:A1 I *D sky130_fd_sc_hd__a21boi_1
*I *692:Q O *D sky130_fd_sc_hd__dfrtp_2
*CAP
1 *747:A 0
2 *636:A2 0.000115205
3 *612:A 0.00010559
4 *618:A0 0
5 *633:A1 0.000364876
6 *616:A1 0.00020222
7 *692:Q 0
8 *205:66 0.000158419
9 *205:51 0.000233727
10 *205:23 0.000609571
11 *205:21 0.000468763
12 *205:6 0.000341365
13 *583:B *633:A1 7.23533e-05
14 *616:B1_N *616:A1 1.91597e-05
15 *617:A1 *612:A 4.9968e-05
16 *617:A1 *205:21 5.02217e-05
17 *618:A1 *612:A 0.000160635
18 *618:A1 *205:21 0.000106655
19 *618:A1 *205:23 0.000342784
20 *618:A1 *205:51 4.66108e-05
21 *633:B1 *633:A1 0.000450808
22 *633:B1 *636:A2 0.000390466
23 *636:A1 *636:A2 1.61831e-05
24 *636:A3 *636:A2 0.0002206
25 *636:A3 *205:66 7.49327e-05
26 *675:A1 *612:A 7.13175e-05
27 *675:A1 *616:A1 0
28 *675:A1 *205:21 0
29 *692:RESET_B *616:A1 0.000136812
30 *738:A *636:A2 4.82919e-05
31 *87:12 *612:A 0
32 *87:16 *612:A 0.000198939
33 *87:16 *205:66 4.99619e-05
34 *110:12 *616:A1 0.000407631
35 *110:12 *205:21 0.000138551
36 *202:34 *633:A1 4.05358e-05
*RES
1 *692:Q *205:6 3.6 
2 *205:6 *616:A1 8.52 
3 *205:6 *205:21 4.91 
4 *205:21 *205:23 3.21 
5 *205:23 *633:A1 11.885 
6 *205:23 *618:A0 1.6 
7 *205:21 *205:51 1.41 
8 *205:51 *612:A 9.065 
9 *205:51 *205:66 1.14 
10 *205:66 *636:A2 6.205 
11 *205:66 *747:A 1.6 
*END

*D_NET *206 0.00609351
*CONN
*I *751:A I *D sky130_fd_sc_hd__dlygate4sd3_1
*I *580:B I *D sky130_fd_sc_hd__or3_2
*I *587:B I *D sky130_fd_sc_hd__or4b_1
*I *612:B_N I *D sky130_fd_sc_hd__or2b_1
*I *693:Q O *D sky130_fd_sc_hd__dfrtp_1
*CAP
1 *751:A 0
2 *580:B 0.000319399
3 *587:B 0
4 *612:B_N 0.000733807
5 *693:Q 0.000496063
6 *206:37 0.000479101
7 *206:16 0.0010293
8 *206:12 0.00063186
9 *612:B_N *636:B2 2.75145e-05
10 *612:B_N *207:14 0.000128545
11 *206:37 *207:49 0.000155106
12 *582:A *612:B_N 8.35157e-05
13 *582:B *612:B_N 8.33066e-06
14 *633:B1 *612:B_N 6.05239e-06
15 *636:A1 *612:B_N 0.000281629
16 *636:A3 *612:B_N 6.90876e-05
17 *636:B1 *612:B_N 1.99939e-05
18 *643:A *206:16 0
19 *643:B *206:12 1.05476e-05
20 *693:D *206:12 0.000122123
21 *693:RESET_B *206:12 6.67233e-05
22 *712:CLK *580:B 0.000178328
23 *725:A *612:B_N 0.000309804
24 *727:A *612:B_N 0.00010962
25 *730:A *612:B_N 0.000110537
26 *764:A *612:B_N 8.64599e-05
27 *24:6 *580:B 0.000235353
28 *87:12 *612:B_N 2.15454e-05
29 *126:30 *206:12 0
30 *126:30 *206:37 0.000342858
31 *201:29 *612:B_N 1.56261e-05
32 *201:42 *612:B_N 1.46781e-05
*RES
1 *693:Q *206:12 12.755 
2 *206:12 *206:16 2.1 
3 *206:16 *612:B_N 18.485 
4 *206:16 *206:37 8.185 
5 *206:37 *587:B 1.6 
6 *206:37 *580:B 6.67 
7 *206:12 *751:A 1.6 
*END

*D_NET *207 0.00409693
*CONN
*I *580:A I *D sky130_fd_sc_hd__or3_2
*I *757:A I *D sky130_fd_sc_hd__dlygate4sd3_1
*I *587:A I *D sky130_fd_sc_hd__or4b_1
*I *611:A1 I *D sky130_fd_sc_hd__o22a_1
*I *636:B2 I *D sky130_fd_sc_hd__a32o_1
*I *694:Q O *D sky130_fd_sc_hd__dfrtp_1
*CAP
1 *580:A 0.000175114
2 *757:A 0
3 *587:A 0
4 *611:A1 0
5 *636:B2 1.09854e-05
6 *694:Q 0.000203624
7 *207:49 0.000428366
8 *207:34 0.00033134
9 *207:27 0.00026591
10 *207:14 0.000402431
11 *609:A *580:A 9.51346e-05
12 *610:A1 *580:A 7.95327e-05
13 *611:A2 *207:34 0.000302133
14 *611:A2 *207:49 4.76556e-05
15 *611:B1 *207:34 5.83121e-06
16 *611:B2 *207:27 3.98029e-05
17 *612:B_N *636:B2 2.75145e-05
18 *612:B_N *207:14 0.000128545
19 *617:A2 *207:27 0
20 *633:B1 *207:14 4.16262e-05
21 *636:B1 *636:B2 3.00381e-05
22 *636:B1 *207:14 6.52265e-05
23 *694:CLK *207:14 2.75229e-05
24 *694:RESET_B *207:14 2.42236e-05
25 *712:CLK *207:34 0.000119873
26 *712:CLK *207:49 4.66108e-05
27 *24:6 *207:34 9.58835e-05
28 *106:8 *580:A 0.00026199
29 *106:8 *207:49 4.66108e-05
30 *126:30 *207:14 0.000252977
31 *142:12 *207:14 0.000206817
32 *198:16 *207:27 0.0001785
33 *206:37 *207:49 0.000155106
*RES
1 *694:Q *207:14 11.48 
2 *207:14 *636:B2 2.05 
3 *207:14 *207:27 7.93 
4 *207:27 *611:A1 1.6 
5 *207:27 *207:34 2.865 
6 *207:34 *587:A 1.6 
7 *207:34 *207:49 8.515 
8 *207:49 *757:A 1.6 
9 *207:49 *580:A 10.115 
*END

*D_NET *208 0.00957265
*CONN
*I *748:A I *D sky130_fd_sc_hd__dlygate4sd3_1
*I *627:A1 I *D sky130_fd_sc_hd__a21oi_1
*I *629:A I *D sky130_fd_sc_hd__nor2_1
*I *624:C I *D sky130_fd_sc_hd__nand3_1
*I *626:A2 I *D sky130_fd_sc_hd__a21bo_1
*I *644:C I *D sky130_fd_sc_hd__and4_1
*I *623:A2 I *D sky130_fd_sc_hd__a32o_1
*I *640:S0 I *D sky130_fd_sc_hd__mux4_1
*I *638:S0 I *D sky130_fd_sc_hd__mux4_1
*I *695:Q O *D sky130_fd_sc_hd__dfrtp_4
*CAP
1 *748:A 0.00011246
2 *627:A1 3.49915e-05
3 *629:A 6.985e-05
4 *624:C 0
5 *626:A2 0
6 *644:C 0
7 *623:A2 2.08101e-05
8 *640:S0 5.20278e-05
9 *638:S0 0.000477628
10 *695:Q 3.37454e-05
11 *208:62 0.00128924
12 *208:52 0.000856124
13 *208:44 0.000259871
14 *208:32 0.00028075
15 *208:20 0.000298143
16 *208:14 0.000434506
17 *208:10 0.000286943
18 *208:8 0.000235037
19 *623:A2 *220:32 0
20 *629:A *622:A 0
21 *629:A *220:81 0.000158653
22 *638:S0 *638:A0 8.46202e-05
23 *638:S0 *638:A3 9.41423e-05
24 *638:S0 *640:A2 0.000200664
25 *640:S0 *209:87 4.66108e-05
26 *208:20 *220:12 0
27 *208:32 *624:B 0.000166866
28 *208:32 *220:32 0.000100335
29 *208:32 *220:41 0
30 *208:44 *624:A 0.000242931
31 *208:44 *624:B 3.75126e-05
32 *208:44 *644:D 4.66108e-05
33 *208:44 *209:27 0.000224439
34 *208:44 *209:31 8.52883e-05
35 *208:44 *220:32 8.3319e-05
36 *208:52 *642:A1 9.50342e-06
37 *208:52 *220:41 5.83121e-06
38 *208:52 *220:47 0.00011379
39 *623:B1 *208:52 1.19928e-05
40 *623:B1 *208:62 3.89602e-05
41 *623:B2 *208:62 2.75229e-05
42 *625:A2 *208:32 3.89151e-05
43 *625:B1_N *208:14 0
44 *627:A2 *627:A1 4.82919e-05
45 *627:A2 *208:10 3.31204e-05
46 *627:A2 *208:14 9.50342e-06
47 *627:B1 *748:A 0
48 *627:B1 *208:10 0
49 *628:A2 *208:32 5.61682e-06
50 *630:B1 *208:14 0
51 *634:A2 *208:20 0.000489483
52 *641:A *640:S0 0.000117297
53 *641:A *208:62 9.61344e-05
54 *651:A *629:A 4.24643e-05
55 *652:A *208:14 0.000128337
56 *685:A1 *208:62 0.000257257
57 *685:S *208:62 1.60203e-05
58 *686:A *638:S0 0.000128649
59 *686:A *208:62 0.000311288
60 *695:RESET_B *208:10 7.21296e-06
61 *695:RESET_B *208:14 9.60974e-05
62 *721:CLK *638:S0 4.60123e-05
63 *780:A *640:S0 8.28738e-05
64 *780:A *208:62 9.78012e-05
65 *114:6 *208:20 8.60799e-05
66 *126:121 *208:14 2.99445e-05
67 *126:121 *208:20 0.000372321
68 *129:55 *208:62 7.35813e-05
69 *141:38 *638:S0 0.000231889
70 *141:55 *638:S0 6.29385e-06
71 *143:45 *208:44 7.63125e-05
72 *198:16 *208:52 0.000112123
73 *198:16 *208:62 1.00113e-05
*RES
1 *695:Q *208:8 4.05 
2 *208:8 *208:10 1.635 
3 *208:10 *208:14 3.36 
4 *208:14 *208:20 8.915 
5 *208:20 *208:32 6.685 
6 *208:32 *208:44 9.655 
7 *208:44 *208:52 5.83 
8 *208:52 *208:62 14.045 
9 *208:62 *638:S0 15.91 
10 *208:62 *640:S0 5.175 
11 *208:52 *623:A2 1.96 
12 *208:44 *644:C 1.6 
13 *208:32 *626:A2 1.6 
14 *208:20 *624:C 1.6 
15 *208:14 *629:A 5.865 
16 *208:10 *627:A1 4.05 
17 *208:8 *748:A 5.49 
*END

*D_NET *209 0.00670038
*CONN
*I *640:S1 I *D sky130_fd_sc_hd__mux4_1
*I *638:S1 I *D sky130_fd_sc_hd__mux4_1
*I *623:A1 I *D sky130_fd_sc_hd__a32o_1
*I *745:A I *D sky130_fd_sc_hd__dlygate4sd3_1
*I *624:B I *D sky130_fd_sc_hd__nand3_1
*I *626:A1 I *D sky130_fd_sc_hd__a21bo_1
*I *644:B I *D sky130_fd_sc_hd__and4_1
*I *696:Q O *D sky130_fd_sc_hd__dfrtp_4
*CAP
1 *640:S1 0.000196599
2 *638:S1 0.000286032
3 *623:A1 0
4 *745:A 0.000457126
5 *624:B 0.000146306
6 *626:A1 0
7 *644:B 0
8 *696:Q 4.28264e-05
9 *209:87 0.00114176
10 *209:31 0.000183808
11 *209:27 0.000775449
12 *209:16 0.000371651
13 *209:10 0.000199718
14 *209:8 0.000810845
15 *624:B *220:32 9.1483e-06
16 *640:S1 *638:A1 3.03586e-05
17 *640:S1 *640:A2 2.74896e-05
18 *640:S1 *640:A3 4.70704e-05
19 *209:10 *220:47 3.25831e-05
20 *209:16 *624:A 1.47256e-05
21 *209:16 *644:D 1.08758e-05
22 *209:16 *220:47 9.30787e-05
23 *209:27 *624:A 1.61831e-05
24 *209:27 *644:D 7.14699e-05
25 *209:87 *640:A0 0.000146657
26 *209:87 *210:10 0.000282571
27 *623:B1 *745:A 4.82172e-06
28 *623:B1 *209:27 3.59531e-06
29 *630:A1 *745:A 3.39426e-05
30 *630:A2 *745:A 0
31 *640:S0 *209:87 4.66108e-05
32 *641:A *640:S1 1.41297e-05
33 *641:A *209:87 4.3364e-05
34 *683:A1 *745:A 0
35 *695:CLK *745:A 5.92849e-05
36 *695:D *745:A 0
37 *697:CLK *209:87 8.09753e-05
38 *697:D *209:87 3.45679e-05
39 *735:A *745:A 0
40 *735:A *209:8 0
41 *749:A *745:A 8.52883e-05
42 *776:A *209:8 0
43 *776:A *209:10 0
44 *776:A *209:16 0
45 *780:A *638:S1 0.000191421
46 *780:A *640:S1 7.5416e-05
47 *114:6 *624:B 5.83121e-06
48 *115:8 *745:A 0
49 *126:121 *624:B 2.86975e-05
50 *141:38 *638:S1 0
51 *143:45 *624:B 0
52 *143:45 *745:A 5.42757e-05
53 *143:45 *209:27 4.24292e-06
54 *198:16 *209:10 2.54692e-05
55 *208:32 *624:B 0.000166866
56 *208:44 *624:B 3.75126e-05
57 *208:44 *209:27 0.000224439
58 *208:44 *209:31 8.52883e-05
*RES
1 *696:Q *209:8 4.215 
2 *209:8 *209:10 1.89 
3 *209:10 *209:16 3.575 
4 *209:16 *644:B 1.6 
5 *209:16 *209:27 6.5 
6 *209:27 *209:31 2.795 
7 *209:31 *626:A1 1.6 
8 *209:31 *624:B 8.99 
9 *209:27 *745:A 11.745 
10 *209:10 *623:A1 3.6 
11 *209:8 *209:87 16.45 
12 *209:87 *638:S1 8.43 
13 *209:87 *640:S1 10.915 
*END

*D_NET *210 0.00360857
*CONN
*I *734:A I *D sky130_fd_sc_hd__dlygate4sd3_1
*I *641:B_N I *D sky130_fd_sc_hd__or2b_1
*I *624:A I *D sky130_fd_sc_hd__nand3_1
*I *644:A I *D sky130_fd_sc_hd__and4_1
*I *639:A I *D sky130_fd_sc_hd__or2_1
*I *697:Q O *D sky130_fd_sc_hd__dfrtp_1
*CAP
1 *734:A 0
2 *641:B_N 0
3 *624:A 0.000130432
4 *644:A 2.89361e-05
5 *639:A 0.000100766
6 *697:Q 0.00029082
7 *210:33 0.000228261
8 *210:18 0.000290481
9 *210:14 0.000227246
10 *210:10 0.000397244
11 *624:A *644:D 2.0514e-05
12 *644:A *644:D 1.85674e-05
13 *641:A *210:18 4.99619e-05
14 *642:A3 *639:A 0.000136052
15 *653:A *210:10 9.78072e-05
16 *653:A *210:14 0.000102411
17 *685:A0 *210:14 0
18 *776:A *639:A 0.000178548
19 *126:8 *639:A 0
20 *126:12 *210:18 0.000161529
21 *126:12 *210:33 0.000148084
22 *126:121 *624:A 0.000433619
23 *126:121 *210:33 1.08758e-05
24 *129:55 *210:14 0
25 *129:59 *210:10 0
26 *208:44 *624:A 0.000242931
27 *209:16 *624:A 1.47256e-05
28 *209:27 *624:A 1.61831e-05
29 *209:87 *210:10 0.000282571
*RES
1 *697:Q *210:10 8.19 
2 *210:10 *210:14 4.145 
3 *210:14 *210:18 2.535 
4 *210:18 *639:A 8.195 
5 *210:18 *210:33 1.485 
6 *210:33 *644:A 2.215 
7 *210:33 *624:A 6.46 
8 *210:14 *641:B_N 1.6 
9 *210:10 *734:A 3.6 
*END

*D_NET *211 0.00289351
*CONN
*I *638:A0 I *D sky130_fd_sc_hd__mux4_1
*I *739:A I *D sky130_fd_sc_hd__dlygate4sd3_1
*I *716:Q O *D sky130_fd_sc_hd__dfxtp_1
*CAP
1 *638:A0 0.000589378
2 *739:A 0.000443442
3 *716:Q 0
4 *211:4 0.00103282
5 *638:A0 *638:A2 5.98486e-05
6 *638:A0 *638:A3 0.000108844
7 *638:A0 *640:A2 2.34791e-05
8 *638:S0 *638:A0 8.46202e-05
9 *647:A *638:A0 0.000242944
10 *675:A0 *739:A 4.85494e-05
11 *675:S *739:A 0.000163199
12 *718:D *638:A0 0
13 *780:A *638:A0 9.63869e-05
*RES
1 *716:Q *211:4 1.6 
2 *211:4 *739:A 8.29 
3 *211:4 *638:A0 15.41 
*END

*D_NET *212 0.00245703
*CONN
*I *736:A I *D sky130_fd_sc_hd__dlygate4sd3_1
*I *638:A1 I *D sky130_fd_sc_hd__mux4_1
*I *717:Q O *D sky130_fd_sc_hd__dfxtp_1
*CAP
1 *736:A 0.000215384
2 *638:A1 0.000633521
3 *717:Q 0
4 *212:4 0.000848904
5 *638:A1 *638:A3 5.54151e-05
6 *638:A1 *640:A2 9.21202e-05
7 *736:A *640:A3 7.14086e-05
8 *736:A *743:A 0
9 *640:S1 *638:A1 3.03586e-05
10 *720:CLK *638:A1 8.92044e-05
11 *721:CLK *638:A1 1.93834e-05
12 *129:80 *736:A 4.95266e-05
13 *141:38 *638:A1 7.07879e-05
14 *141:55 *638:A1 0.000281013
*RES
1 *717:Q *212:4 1.6 
2 *212:4 *638:A1 15.515 
3 *212:4 *736:A 9.305 
*END

*D_NET *213 0.00113875
*CONN
*I *638:A2 I *D sky130_fd_sc_hd__mux4_1
*I *744:A I *D sky130_fd_sc_hd__dlygate4sd3_1
*I *718:Q O *D sky130_fd_sc_hd__dfxtp_1
*CAP
1 *638:A2 0.000183124
2 *744:A 3.07736e-05
3 *718:Q 0.000146724
4 *213:10 0.000360622
5 *638:A0 *638:A2 5.98486e-05
6 *639:B *638:A2 2.59285e-05
7 *641:A *638:A2 3.09164e-05
8 *647:A *744:A 1.56428e-05
9 *780:A *638:A2 0.000150418
10 *780:A *213:10 0.00013475
11 *129:55 *638:A2 0
*RES
1 *718:Q *213:10 6.03 
2 *213:10 *744:A 4.05 
3 *213:10 *638:A2 7.4925 
*END

*D_NET *214 0.00305388
*CONN
*I *741:A I *D sky130_fd_sc_hd__dlygate4sd3_1
*I *638:A3 I *D sky130_fd_sc_hd__mux4_1
*I *719:Q O *D sky130_fd_sc_hd__dfxtp_1
*CAP
1 *741:A 0.000458011
2 *638:A3 0.000500284
3 *719:Q 0.000263806
4 *214:8 0.0012221
5 *638:A3 *640:A2 6.65085e-05
6 *741:A *640:A2 0
7 *741:A *743:A 0
8 *638:A0 *638:A3 0.000108844
9 *638:A1 *638:A3 5.54151e-05
10 *638:S0 *638:A3 9.41423e-05
11 *677:A1 *741:A 0
12 *678:A *741:A 4.92096e-05
13 *689:A0 *741:A 7.23602e-05
14 *689:A1 *741:A 0
15 *690:A *638:A3 0
16 *690:A *741:A 0
17 *780:A *741:A 0.000163199
18 *141:55 *741:A 0
*RES
1 *719:Q *214:8 6.465 
2 *214:8 *638:A3 12.09 
3 *214:8 *741:A 11.82 
*END

*D_NET *215 0.00153072
*CONN
*I *733:A I *D sky130_fd_sc_hd__dlygate4sd3_1
*I *640:A0 I *D sky130_fd_sc_hd__mux4_1
*I *720:Q O *D sky130_fd_sc_hd__dfxtp_1
*CAP
1 *733:A 8.73464e-05
2 *640:A0 0.00043853
3 *720:Q 5.16636e-05
4 *215:8 0.00057754
5 *653:A *640:A0 0
6 *683:A0 *733:A 0
7 *683:S *215:8 8.44453e-05
8 *684:A *215:8 4.82919e-05
9 *776:A *733:A 0
10 *129:59 *640:A0 2.46089e-05
11 *129:80 *640:A0 4.06899e-05
12 *129:80 *733:A 3.09451e-05
13 *209:87 *640:A0 0.000146657
*RES
1 *720:Q *215:8 4.74 
2 *215:8 *640:A0 10.005 
3 *215:8 *733:A 5.235 
*END

*D_NET *216 0.000865463
*CONN
*I *640:A1 I *D sky130_fd_sc_hd__mux4_1
*I *732:A I *D sky130_fd_sc_hd__dlygate4sd3_1
*I *721:Q O *D sky130_fd_sc_hd__dfxtp_1
*CAP
1 *640:A1 9.23405e-05
2 *732:A 0.000210525
3 *721:Q 3.72196e-05
4 *216:8 0.000340085
5 *641:A *640:A1 0
6 *641:A *732:A 9.52646e-05
7 *686:A *216:8 1.83847e-05
8 *129:55 *732:A 7.16437e-05
9 *129:59 *640:A1 0
10 *129:59 *732:A 0
*RES
1 *721:Q *216:8 4.05 
2 *216:8 *732:A 7.74 
3 *216:8 *640:A1 4.98 
*END

*D_NET *217 0.00218856
*CONN
*I *640:A2 I *D sky130_fd_sc_hd__mux4_1
*I *742:A I *D sky130_fd_sc_hd__dlygate4sd3_1
*I *722:Q O *D sky130_fd_sc_hd__dfxtp_1
*CAP
1 *640:A2 0.000604797
2 *742:A 0
3 *722:Q 0.00016166
4 *217:12 0.000766458
5 *638:A0 *640:A2 2.34791e-05
6 *638:A1 *640:A2 9.21202e-05
7 *638:A3 *640:A2 6.65085e-05
8 *638:S0 *640:A2 0.000200664
9 *640:S1 *640:A2 2.74896e-05
10 *641:A *640:A2 0.000120176
11 *741:A *640:A2 0
12 *141:38 *640:A2 7.98265e-06
13 *141:55 *640:A2 0.00011723
*RES
1 *722:Q *217:12 7.775 
2 *217:12 *742:A 1.6 
3 *217:12 *640:A2 17.1425 
*END

*D_NET *218 0.00275029
*CONN
*I *640:A3 I *D sky130_fd_sc_hd__mux4_1
*I *743:A I *D sky130_fd_sc_hd__dlygate4sd3_1
*I *723:Q O *D sky130_fd_sc_hd__dfxtp_1
*CAP
1 *640:A3 0.000301668
2 *743:A 0.000279635
3 *723:Q 0.000427365
4 *218:6 0.00100867
5 *640:S1 *640:A3 4.70704e-05
6 *677:A1 *743:A 7.23602e-05
7 *720:CLK *640:A3 8.6386e-05
8 *720:CLK *218:6 4.9253e-06
9 *736:A *640:A3 7.14086e-05
10 *736:A *743:A 0
11 *741:A *743:A 0
12 *769:A *743:A 7.58604e-05
13 *780:A *640:A3 4.41365e-05
14 *780:A *743:A 4.43625e-05
15 *141:57 *218:6 0.000151965
16 *141:70 *218:6 0.000134477
*RES
1 *723:Q *218:6 7.225 
2 *218:6 *743:A 10.415 
3 *218:6 *640:A3 10.535 
*END

*D_NET *219 0.00320785
*CONN
*I *763:A I *D sky130_fd_sc_hd__dlygate4sd3_1
*I *762:A I *D sky130_fd_sc_hd__dlygate4sd3_1
*I *673:A I *D sky130_fd_sc_hd__and3_1
*I *703:Q O *D sky130_fd_sc_hd__dfstp_1
*CAP
1 *763:A 0.000122463
2 *762:A 0
3 *673:A 0.00055473
4 *703:Q 4.56784e-05
5 *219:12 0.00062929
6 *219:8 0.000242701
7 *763:A *760:A 5.72091e-05
8 *632:A1 *673:A 0.000238137
9 *632:A2 *673:A 6.59822e-05
10 *632:A2 *219:12 1.07797e-05
11 *637:B *219:12 0
12 *642:C1 *673:A 0.000199496
13 *661:A *763:A 3.00381e-05
14 *665:A *673:A 0.00022558
15 *665:A *219:12 8.53113e-06
16 *703:SET_B *763:A 0
17 *703:SET_B *219:12 0
18 *714:CLK *763:A 0.000203762
19 *714:CLK *219:12 0.000118513
20 *127:96 *673:A 0.000147487
21 *127:102 *673:A 8.8266e-05
22 *161:14 *219:8 6.74384e-05
23 *161:29 *673:A 7.38676e-05
24 *198:16 *673:A 3.89528e-05
25 *203:10 *673:A 3.89528e-05
*RES
1 *703:Q *219:8 4.2225 
2 *219:8 *219:12 3.635 
3 *219:12 *673:A 17.21 
4 *219:12 *762:A 1.6 
5 *219:8 *763:A 6.81 
*END

*D_NET *220 0.00613352
*CONN
*I *629:B I *D sky130_fd_sc_hd__nor2_1
*I *622:A I *D sky130_fd_sc_hd__or2b_1
*I *634:A1 I *D sky130_fd_sc_hd__a21o_1
*I *625:A1 I *D sky130_fd_sc_hd__a21bo_1
*I *623:A3 I *D sky130_fd_sc_hd__a32o_1
*I *644:D I *D sky130_fd_sc_hd__and4_1
*I *642:A1 I *D sky130_fd_sc_hd__a311o_1
*I *626:B1_N I *D sky130_fd_sc_hd__a21bo_1
*I *704:Q O *D sky130_fd_sc_hd__dfrtp_4
*CAP
1 *629:B 0
2 *622:A 0.0002917
3 *634:A1 0
4 *625:A1 0
5 *623:A3 0
6 *644:D 3.90046e-05
7 *642:A1 0.000177068
8 *626:B1_N 0
9 *704:Q 0.000390298
10 *220:81 0.000706626
11 *220:47 0.00033181
12 *220:41 0.000216258
13 *220:32 0.000528891
14 *220:14 0.000512278
15 *220:12 0.000889133
16 *623:A2 *220:32 0
17 *623:B1 *220:41 0.000198051
18 *624:A *644:D 2.0514e-05
19 *624:B *220:32 9.1483e-06
20 *625:A2 *220:32 6.34399e-05
21 *625:B1_N *220:12 3.09164e-05
22 *625:B1_N *220:32 0
23 *628:A2 *220:14 4.57056e-05
24 *628:A2 *220:32 1.58462e-05
25 *629:A *622:A 0
26 *629:A *220:81 0.000158653
27 *630:B1 *220:14 8.35068e-05
28 *630:B1 *220:81 1.47347e-05
29 *634:B1 *622:A 5.07419e-05
30 *642:A2 *642:A1 0.000334629
31 *644:A *644:D 1.85674e-05
32 *651:A *220:81 1.19928e-05
33 *776:A *642:A1 0
34 *776:A *220:47 0
35 *126:16 *642:A1 9.58614e-05
36 *126:121 *220:12 0
37 *198:16 *642:A1 0.000304647
38 *198:16 *220:47 2.60986e-05
39 *208:20 *220:12 0
40 *208:32 *220:32 0.000100335
41 *208:32 *220:41 0
42 *208:44 *644:D 4.66108e-05
43 *208:44 *220:32 8.3319e-05
44 *208:52 *642:A1 9.50342e-06
45 *208:52 *220:41 5.83121e-06
46 *208:52 *220:47 0.00011379
47 *209:10 *220:47 3.25831e-05
48 *209:16 *644:D 1.08758e-05
49 *209:16 *220:47 9.30787e-05
50 *209:27 *644:D 7.14699e-05
*RES
1 *704:Q *220:12 11.36 
2 *220:12 *220:14 1.83 
3 *220:14 *220:32 10.315 
4 *220:32 *626:B1_N 1.6 
5 *220:32 *220:41 2.19 
6 *220:41 *220:47 4.34 
7 *220:47 *642:A1 10.08 
8 *220:47 *644:D 4.755 
9 *220:41 *623:A3 1.6 
10 *220:14 *625:A1 1.6 
11 *220:12 *220:81 5.205 
12 *220:81 *634:A1 1.6 
13 *220:81 *622:A 5.5 
14 *220:12 *629:B 1.6 
*END

*D_NET *221 0.00146744
*CONN
*I *622:B_N I *D sky130_fd_sc_hd__or2b_1
*I *729:A I *D sky130_fd_sc_hd__dlygate4sd3_1
*I *705:Q O *D sky130_fd_sc_hd__dfrtp_1
*CAP
1 *622:B_N 0.000281913
2 *729:A 3.76639e-05
3 *705:Q 8.25941e-05
4 *221:8 0.000402171
5 *775:A *622:B_N 0.000133075
6 *775:A *221:8 0.000289151
7 *781:A *622:B_N 7.89767e-05
8 *781:A *221:8 0.0001619
*RES
1 *705:Q *221:8 7.02 
2 *221:8 *729:A 4.05 
3 *221:8 *622:B_N 8.715 
*END

*D_NET *222 0.000934423
*CONN
*I *760:A I *D sky130_fd_sc_hd__clkdlybuf4s25_1
*I *706:Q O *D sky130_fd_sc_hd__dfrtp_1
*CAP
1 *760:A 0.000246986
2 *706:Q 0.000246986
3 *642:B1 *760:A 2.11084e-05
4 *661:A *760:A 0.000201503
5 *679:A1 *760:A 0.00016063
6 *703:SET_B *760:A 0
7 *714:CLK *760:A 0
8 *763:A *760:A 5.72091e-05
9 *127:132 *760:A 0
*RES
1 *706:Q *760:A 12.66 
*END
