*SPEF "ieee 1481-1999"
*DESIGN "uart_top"
*DATE "11:11:11 Fri 11 11, 1111"
*VENDOR "OpenRCX"
*PROGRAM "Parallel Extraction"
*VERSION "1.0"
*DESIGN_FLOW "NAME_SCOPE LOCAL" "PIN_CAP NONE"
*DIVIDER /
*DELIMITER :
*BUS_DELIMITER []
*T_UNIT 1 NS
*C_UNIT 1 PF
*R_UNIT 1 OHM
*L_UNIT 1 HENRY

*NAME_MAP
*3 clk
*4 reset
*5 rx_data[0]
*6 rx_data[1]
*7 rx_data[2]
*8 rx_data[3]
*9 rx_data[4]
*10 rx_data[5]
*11 rx_data[6]
*12 rx_data[7]
*13 rx_done
*14 start
*15 tx_data[0]
*16 tx_data[1]
*17 tx_data[2]
*18 tx_data[3]
*19 tx_data[4]
*20 tx_data[5]
*21 tx_data[6]
*22 tx_data[7]
*23 tx_done
*24 _000_
*25 _001_
*26 _002_
*27 _003_
*28 _004_
*29 _005_
*30 _006_
*31 _007_
*32 _008_
*33 _009_
*34 _010_
*35 _011_
*36 _012_
*37 _013_
*38 _014_
*39 _015_
*40 _016_
*41 _017_
*42 _018_
*43 _019_
*44 _020_
*45 _021_
*46 _022_
*47 _023_
*48 _024_
*49 _025_
*50 _026_
*51 _027_
*52 _028_
*53 _029_
*54 _030_
*55 _031_
*56 _032_
*57 _033_
*58 _034_
*59 _035_
*60 _036_
*61 _037_
*62 _038_
*63 _039_
*64 _040_
*65 _041_
*66 _042_
*67 _043_
*68 _044_
*69 _045_
*70 _046_
*71 _047_
*72 _048_
*73 _049_
*74 _050_
*75 _051_
*76 _052_
*77 _053_
*78 _054_
*79 _055_
*80 _056_
*81 _057_
*82 _058_
*83 _059_
*84 _060_
*85 _061_
*86 _062_
*87 _063_
*88 _064_
*89 _065_
*90 _066_
*91 _067_
*92 _068_
*93 _069_
*94 _070_
*95 _071_
*96 _072_
*97 _073_
*98 _074_
*99 _075_
*100 _076_
*101 _077_
*102 _078_
*103 _079_
*104 _080_
*105 _081_
*106 _082_
*107 _083_
*108 _084_
*109 _085_
*110 _086_
*111 _087_
*112 _088_
*113 _089_
*114 _090_
*115 _091_
*116 _092_
*117 _093_
*118 _094_
*119 _095_
*120 _096_
*121 _097_
*122 _098_
*123 _099_
*124 _100_
*125 _101_
*126 _102_
*127 _103_
*128 _104_
*129 _105_
*130 _106_
*131 _107_
*132 _108_
*133 _109_
*134 _110_
*135 _111_
*136 _112_
*137 _113_
*138 _114_
*139 clknet_0_clk
*140 clknet_2_0__leaf_clk
*141 clknet_2_1__leaf_clk
*142 clknet_2_2__leaf_clk
*143 clknet_2_3__leaf_clk
*144 net1
*145 net10
*146 net11
*147 net12
*148 net13
*149 net14
*150 net15
*151 net16
*152 net17
*153 net18
*154 net19
*155 net2
*156 net20
*157 net21
*158 net22
*159 net23
*160 net24
*161 net25
*162 net26
*163 net27
*164 net28
*165 net29
*166 net3
*167 net30
*168 net31
*169 net32
*170 net33
*171 net34
*172 net35
*173 net36
*174 net37
*175 net38
*176 net39
*177 net4
*178 net40
*179 net41
*180 net42
*181 net43
*182 net44
*183 net45
*184 net46
*185 net47
*186 net48
*187 net49
*188 net5
*189 net50
*190 net51
*191 net52
*192 net53
*193 net54
*194 net55
*195 net56
*196 net6
*197 net7
*198 net8
*199 net9
*200 rx_inst\.bit_count\[0\]
*201 rx_inst\.bit_count\[1\]
*202 rx_inst\.bit_count\[2\]
*203 rx_inst\.rx
*204 rx_inst\.state\[0\]
*205 rx_inst\.state\[1\]
*206 rx_inst\.state\[2\]
*207 rx_inst\.state\[3\]
*208 tx_inst\.bit_count\[0\]
*209 tx_inst\.bit_count\[1\]
*210 tx_inst\.bit_count\[2\]
*211 tx_inst\.data_reg\[0\]
*212 tx_inst\.data_reg\[1\]
*213 tx_inst\.data_reg\[2\]
*214 tx_inst\.data_reg\[3\]
*215 tx_inst\.data_reg\[4\]
*216 tx_inst\.data_reg\[5\]
*217 tx_inst\.data_reg\[6\]
*218 tx_inst\.data_reg\[7\]
*219 tx_inst\.state\[0\]
*220 tx_inst\.state\[1\]
*221 tx_inst\.state\[2\]
*222 tx_inst\.state\[3\]
*223 FILLER_0_0_102
*224 FILLER_0_0_110
*225 FILLER_0_0_113
*226 FILLER_0_0_125
*227 FILLER_0_0_21
*228 FILLER_0_0_27
*229 FILLER_0_0_29
*230 FILLER_0_0_41
*231 FILLER_0_0_49
*232 FILLER_0_0_55
*233 FILLER_0_0_57
*234 FILLER_0_0_69
*235 FILLER_0_0_81
*236 FILLER_0_0_85
*237 FILLER_0_0_9
*238 FILLER_0_0_90
*239 FILLER_0_10_106
*240 FILLER_0_10_118
*241 FILLER_0_10_126
*242 FILLER_0_10_130
*243 FILLER_0_10_15
*244 FILLER_0_10_27
*245 FILLER_0_10_3
*246 FILLER_0_10_49
*247 FILLER_0_10_67
*248 FILLER_0_10_79
*249 FILLER_0_10_83
*250 FILLER_0_10_88
*251 FILLER_0_10_96
*252 FILLER_0_11_113
*253 FILLER_0_11_117
*254 FILLER_0_11_127
*255 FILLER_0_11_15
*256 FILLER_0_11_27
*257 FILLER_0_11_3
*258 FILLER_0_11_39
*259 FILLER_0_11_47
*260 FILLER_0_11_52
*261 FILLER_0_11_57
*262 FILLER_0_11_93
*263 FILLER_0_11_99
*264 FILLER_0_12_102
*265 FILLER_0_12_114
*266 FILLER_0_12_15
*267 FILLER_0_12_27
*268 FILLER_0_12_29
*269 FILLER_0_12_3
*270 FILLER_0_12_41
*271 FILLER_0_12_49
*272 FILLER_0_12_70
*273 FILLER_0_12_80
*274 FILLER_0_12_85
*275 FILLER_0_12_93
*276 FILLER_0_13_124
*277 FILLER_0_13_128
*278 FILLER_0_13_15
*279 FILLER_0_13_23
*280 FILLER_0_13_3
*281 FILLER_0_13_34
*282 FILLER_0_13_39
*283 FILLER_0_13_45
*284 FILLER_0_13_52
*285 FILLER_0_13_63
*286 FILLER_0_13_88
*287 FILLER_0_14_113
*288 FILLER_0_14_117
*289 FILLER_0_14_121
*290 FILLER_0_14_18
*291 FILLER_0_14_25
*292 FILLER_0_14_29
*293 FILLER_0_14_6
*294 FILLER_0_14_64
*295 FILLER_0_14_72
*296 FILLER_0_14_83
*297 FILLER_0_15_108
*298 FILLER_0_15_133
*299 FILLER_0_15_3
*300 FILLER_0_15_52
*301 FILLER_0_15_57
*302 FILLER_0_15_69
*303 FILLER_0_15_96
*304 FILLER_0_16_105
*305 FILLER_0_16_129
*306 FILLER_0_16_135
*307 FILLER_0_16_23
*308 FILLER_0_16_27
*309 FILLER_0_16_29
*310 FILLER_0_16_3
*311 FILLER_0_16_49
*312 FILLER_0_16_61
*313 FILLER_0_16_65
*314 FILLER_0_16_77
*315 FILLER_0_16_83
*316 FILLER_0_16_85
*317 FILLER_0_16_97
*318 FILLER_0_17_105
*319 FILLER_0_17_111
*320 FILLER_0_17_113
*321 FILLER_0_17_123
*322 FILLER_0_17_132
*323 FILLER_0_17_15
*324 FILLER_0_17_25
*325 FILLER_0_17_3
*326 FILLER_0_17_31
*327 FILLER_0_17_53
*328 FILLER_0_17_57
*329 FILLER_0_17_73
*330 FILLER_0_17_84
*331 FILLER_0_17_88
*332 FILLER_0_17_93
*333 FILLER_0_18_107
*334 FILLER_0_18_125
*335 FILLER_0_18_133
*336 FILLER_0_18_14
*337 FILLER_0_18_26
*338 FILLER_0_18_29
*339 FILLER_0_18_3
*340 FILLER_0_18_37
*341 FILLER_0_18_66
*342 FILLER_0_18_83
*343 FILLER_0_19_113
*344 FILLER_0_19_125
*345 FILLER_0_19_129
*346 FILLER_0_19_23
*347 FILLER_0_19_3
*348 FILLER_0_19_57
*349 FILLER_0_1_110
*350 FILLER_0_1_113
*351 FILLER_0_1_125
*352 FILLER_0_1_129
*353 FILLER_0_1_44
*354 FILLER_0_1_55
*355 FILLER_0_1_57
*356 FILLER_0_1_62
*357 FILLER_0_1_70
*358 FILLER_0_1_74
*359 FILLER_0_1_86
*360 FILLER_0_1_9
*361 FILLER_0_1_98
*362 FILLER_0_20_110
*363 FILLER_0_20_122
*364 FILLER_0_20_134
*365 FILLER_0_20_24
*366 FILLER_0_20_3
*367 FILLER_0_20_45
*368 FILLER_0_20_7
*369 FILLER_0_20_74
*370 FILLER_0_20_85
*371 FILLER_0_21_109
*372 FILLER_0_21_113
*373 FILLER_0_21_125
*374 FILLER_0_21_133
*375 FILLER_0_21_29
*376 FILLER_0_21_39
*377 FILLER_0_21_48
*378 FILLER_0_21_54
*379 FILLER_0_21_57
*380 FILLER_0_21_63
*381 FILLER_0_21_72
*382 FILLER_0_21_84
*383 FILLER_0_21_9
*384 FILLER_0_22_104
*385 FILLER_0_22_113
*386 FILLER_0_22_121
*387 FILLER_0_22_14
*388 FILLER_0_22_18
*389 FILLER_0_22_27
*390 FILLER_0_22_37
*391 FILLER_0_22_41
*392 FILLER_0_22_53
*393 FILLER_0_22_57
*394 FILLER_0_22_6
*395 FILLER_0_22_69
*396 FILLER_0_22_79
*397 FILLER_0_22_83
*398 FILLER_0_22_85
*399 FILLER_0_22_93
*400 FILLER_0_2_102
*401 FILLER_0_2_114
*402 FILLER_0_2_126
*403 FILLER_0_2_134
*404 FILLER_0_2_15
*405 FILLER_0_2_27
*406 FILLER_0_2_3
*407 FILLER_0_2_32
*408 FILLER_0_2_82
*409 FILLER_0_2_85
*410 FILLER_0_2_90
*411 FILLER_0_3_107
*412 FILLER_0_3_111
*413 FILLER_0_3_113
*414 FILLER_0_3_125
*415 FILLER_0_3_133
*416 FILLER_0_3_26
*417 FILLER_0_3_3
*418 FILLER_0_3_53
*419 FILLER_0_4_108
*420 FILLER_0_4_120
*421 FILLER_0_4_132
*422 FILLER_0_4_26
*423 FILLER_0_4_53
*424 FILLER_0_4_79
*425 FILLER_0_4_83
*426 FILLER_0_4_96
*427 FILLER_0_5_104
*428 FILLER_0_5_113
*429 FILLER_0_5_124
*430 FILLER_0_5_135
*431 FILLER_0_5_14
*432 FILLER_0_5_3
*433 FILLER_0_5_36
*434 FILLER_0_5_40
*435 FILLER_0_5_49
*436 FILLER_0_6_105
*437 FILLER_0_6_134
*438 FILLER_0_6_24
*439 FILLER_0_6_29
*440 FILLER_0_6_3
*441 FILLER_0_6_50
*442 FILLER_0_6_55
*443 FILLER_0_6_62
*444 FILLER_0_6_70
*445 FILLER_0_6_80
*446 FILLER_0_7_104
*447 FILLER_0_7_113
*448 FILLER_0_7_123
*449 FILLER_0_7_133
*450 FILLER_0_7_14
*451 FILLER_0_7_46
*452 FILLER_0_7_53
*453 FILLER_0_7_67
*454 FILLER_0_7_9
*455 FILLER_0_8_104
*456 FILLER_0_8_110
*457 FILLER_0_8_131
*458 FILLER_0_8_26
*459 FILLER_0_8_29
*460 FILLER_0_8_35
*461 FILLER_0_8_44
*462 FILLER_0_8_78
*463 FILLER_0_8_85
*464 FILLER_0_8_89
*465 FILLER_0_9_11
*466 FILLER_0_9_113
*467 FILLER_0_9_117
*468 FILLER_0_9_122
*469 FILLER_0_9_130
*470 FILLER_0_9_134
*471 FILLER_0_9_3
*472 FILLER_0_9_31
*473 FILLER_0_9_35
*474 FILLER_0_9_54
*475 FILLER_0_9_57
*476 FILLER_0_9_64
*477 FILLER_0_9_71
*478 FILLER_0_9_83
*479 FILLER_0_9_88
*480 PHY_0
*481 PHY_1
*482 PHY_10
*483 PHY_11
*484 PHY_12
*485 PHY_13
*486 PHY_14
*487 PHY_15
*488 PHY_16
*489 PHY_17
*490 PHY_18
*491 PHY_19
*492 PHY_2
*493 PHY_20
*494 PHY_21
*495 PHY_22
*496 PHY_23
*497 PHY_24
*498 PHY_25
*499 PHY_26
*500 PHY_27
*501 PHY_28
*502 PHY_29
*503 PHY_3
*504 PHY_30
*505 PHY_31
*506 PHY_32
*507 PHY_33
*508 PHY_34
*509 PHY_35
*510 PHY_36
*511 PHY_37
*512 PHY_38
*513 PHY_39
*514 PHY_4
*515 PHY_40
*516 PHY_41
*517 PHY_42
*518 PHY_43
*519 PHY_44
*520 PHY_45
*521 PHY_5
*522 PHY_6
*523 PHY_7
*524 PHY_8
*525 PHY_9
*526 TAP_46
*527 TAP_47
*528 TAP_48
*529 TAP_49
*530 TAP_50
*531 TAP_51
*532 TAP_52
*533 TAP_53
*534 TAP_54
*535 TAP_55
*536 TAP_56
*537 TAP_57
*538 TAP_58
*539 TAP_59
*540 TAP_60
*541 TAP_61
*542 TAP_62
*543 TAP_63
*544 TAP_64
*545 TAP_65
*546 TAP_66
*547 TAP_67
*548 TAP_68
*549 TAP_69
*550 TAP_70
*551 TAP_71
*552 TAP_72
*553 TAP_73
*554 TAP_74
*555 TAP_75
*556 TAP_76
*557 TAP_77
*558 TAP_78
*559 TAP_79
*560 TAP_80
*561 TAP_81
*562 TAP_82
*563 TAP_83
*564 TAP_84
*565 TAP_85
*566 TAP_86
*567 TAP_87
*568 TAP_88
*569 TAP_89
*570 TAP_90
*571 TAP_91
*572 TAP_92
*573 TAP_93
*574 TAP_94
*575 TAP_95
*576 _115_
*577 _116_
*578 _117_
*579 _118_
*580 _119_
*581 _120_
*582 _121_
*583 _122_
*584 _123_
*585 _124_
*586 _125_
*587 _126_
*588 _127_
*589 _128_
*590 _129_
*591 _130_
*592 _131_
*593 _132_
*594 _133_
*595 _134_
*596 _135_
*597 _136_
*598 _137_
*599 _138_
*600 _139_
*601 _140_
*602 _141_
*603 _142_
*604 _143_
*605 _144_
*606 _145_
*607 _146_
*608 _147_
*609 _148_
*610 _149_
*611 _150_
*612 _151_
*613 _152_
*614 _153_
*615 _154_
*616 _155_
*617 _156_
*618 _157_
*619 _158_
*620 _159_
*621 _160_
*622 _161_
*623 _162_
*624 _163_
*625 _164_
*626 _165_
*627 _166_
*628 _167_
*629 _168_
*630 _169_
*631 _170_
*632 _171_
*633 _172_
*634 _173_
*635 _174_
*636 _175_
*637 _176_
*638 _177_
*639 _178_
*640 _179_
*641 _180_
*642 _181_
*643 _182_
*644 _183_
*645 _184_
*646 _185_
*647 _186_
*648 _187_
*649 _188_
*650 _189_
*651 _190_
*652 _191_
*653 _192_
*654 _193_
*655 _194_
*656 _195_
*657 _196_
*658 _197_
*659 _198_
*660 _199_
*661 _200_
*662 _201_
*663 _202_
*664 _203_
*665 _204_
*666 _205_
*667 _206_
*668 _207_
*669 _208_
*670 _209_
*671 _210_
*672 _211_
*673 _212_
*674 _213_
*675 _214_
*676 _215_
*677 _216_
*678 _217_
*679 _218_
*680 _219_
*681 _220_
*682 _221_
*683 _222_
*684 _223_
*685 _224_
*686 _225_
*687 _226_
*688 _227_
*689 _228_
*690 _229_
*691 _230_
*692 _231_
*693 _232_
*694 _233_
*695 _234_
*696 _235_
*697 _236_
*698 _237_
*699 _238_
*700 _239_
*701 _240_
*702 _241_
*703 _242_
*704 _243_
*705 _244_
*706 _245_
*707 _246_
*708 _247_
*709 _248_
*710 _249_
*711 _250_
*712 _251_
*713 _252_
*714 _253_
*715 _254_
*716 _255_
*717 _256_
*718 _257_
*719 _258_
*720 _259_
*721 _260_
*722 _261_
*723 _262_
*724 clkbuf_0_clk
*725 clkbuf_2_0__f_clk
*726 clkbuf_2_1__f_clk
*727 clkbuf_2_2__f_clk
*728 clkbuf_2_3__f_clk
*729 hold1
*730 hold10
*731 hold11
*732 hold12
*733 hold13
*734 hold14
*735 hold15
*736 hold16
*737 hold17
*738 hold18
*739 hold19
*740 hold2
*741 hold20
*742 hold21
*743 hold22
*744 hold23
*745 hold24
*746 hold25
*747 hold26
*748 hold27
*749 hold28
*750 hold29
*751 hold3
*752 hold30
*753 hold31
*754 hold32
*755 hold33
*756 hold34
*757 hold35
*758 hold36
*759 hold4
*760 hold5
*761 hold6
*762 hold7
*763 hold8
*764 hold9
*765 input1
*766 input10
*767 input2
*768 input3
*769 input4
*770 input5
*771 input6
*772 input7
*773 input8
*774 input9
*775 output11
*776 output12
*777 output13
*778 output14
*779 output15
*780 output16
*781 output17
*782 output18
*783 output19
*784 output20

*PORTS
clk I
reset I
rx_data[0] O
rx_data[1] O
rx_data[2] O
rx_data[3] O
rx_data[4] O
rx_data[5] O
rx_data[6] O
rx_data[7] O
rx_done O
start I
tx_data[0] I
tx_data[1] I
tx_data[2] I
tx_data[3] I
tx_data[4] I
tx_data[5] I
tx_data[6] I
tx_data[7] I
tx_done O

*D_NET *3 0.00710307
*CONN
*P clk I
*I *724:A I *D sky130_fd_sc_hd__clkbuf_16
*CAP
1 clk 0.00341672
2 *724:A 0
3 *3:21 0.00341672
4 *3:21 *589:A0 0
5 *3:21 *607:S 4.40724e-05
6 *3:21 *608:A 0.000175164
7 *3:21 *665:A 0
8 *3:21 *784:A 0
9 *3:21 *126:18 2.69614e-05
10 *3:21 *198:12 2.34423e-05
*RES
1 clk *3:21 47.2669 
2 *3:21 *724:A 13.8 
*END

*D_NET *4 0.00189171
*CONN
*P reset I
*I *765:A I *D sky130_fd_sc_hd__clkbuf_4
*CAP
1 reset 0.000945857
2 *765:A 0.000945857
*RES
1 reset *765:A 27.3448 
*END

*D_NET *5 0.00093927
*CONN
*P rx_data[0] O
*I *775:X O *D sky130_fd_sc_hd__clkbuf_4
*CAP
1 rx_data[0] 0.000469635
2 *775:X 0.000469635
*RES
1 *775:X rx_data[0] 22.4429 
*END

*D_NET *6 0.00107292
*CONN
*P rx_data[1] O
*I *776:X O *D sky130_fd_sc_hd__clkbuf_4
*CAP
1 rx_data[1] 0.00053646
2 *776:X 0.00053646
*RES
1 *776:X rx_data[1] 23.2643 
*END

*D_NET *7 0.000610505
*CONN
*P rx_data[2] O
*I *777:X O *D sky130_fd_sc_hd__clkbuf_4
*CAP
1 rx_data[2] 0.000305252
2 *777:X 0.000305252
3 rx_data[2] rx_data[7] 0
*RES
1 *777:X rx_data[2] 20.3518 
*END

*D_NET *8 0.000496445
*CONN
*P rx_data[3] O
*I *778:X O *D sky130_fd_sc_hd__clkbuf_4
*CAP
1 rx_data[3] 0.000248222
2 *778:X 0.000248222
*RES
1 *778:X rx_data[3] 20.2447 
*END

*D_NET *9 0.000505184
*CONN
*P rx_data[4] O
*I *779:X O *D sky130_fd_sc_hd__clkbuf_4
*CAP
1 rx_data[4] 0.000246494
2 *779:X 0.000246494
3 rx_data[4] *155:10 1.21955e-05
*RES
1 *779:X rx_data[4] 18.5865 
*END

*D_NET *10 0.000915065
*CONN
*P rx_data[5] O
*I *780:X O *D sky130_fd_sc_hd__clkbuf_4
*CAP
1 rx_data[5] 0.000457533
2 *780:X 0.000457533
3 rx_data[5] *719:D 0
4 rx_data[5] *141:74 0
*RES
1 *780:X rx_data[5] 21.4312 
*END

*D_NET *11 0.00069747
*CONN
*P rx_data[6] O
*I *781:X O *D sky130_fd_sc_hd__clkbuf_4
*CAP
1 rx_data[6] 0.000259678
2 *781:X 0.000259678
3 rx_data[6] *775:A 6.27457e-05
4 rx_data[6] *781:A 0.000115369
*RES
1 *781:X rx_data[6] 19.4092 
*END

*D_NET *12 0.00142033
*CONN
*P rx_data[7] O
*I *782:X O *D sky130_fd_sc_hd__clkbuf_4
*CAP
1 rx_data[7] 0.000710163
2 *782:X 0.000710163
3 rx_data[2] rx_data[7] 0
*RES
1 *782:X rx_data[7] 27.2821 
*END

*D_NET *13 0.000700258
*CONN
*P rx_done O
*I *783:X O *D sky130_fd_sc_hd__clkbuf_4
*CAP
1 rx_done 0.000350129
2 *783:X 0.000350129
*RES
1 *783:X rx_done 20.6929 
*END

*D_NET *14 0.00139131
*CONN
*P start I
*I *767:A I *D sky130_fd_sc_hd__buf_1
*CAP
1 start 0.000695656
2 *767:A 0.000695656
*RES
1 start *767:A 27.175 
*END

*D_NET *15 0.000947753
*CONN
*P tx_data[0] I
*I *768:A I *D sky130_fd_sc_hd__clkbuf_1
*CAP
1 tx_data[0] 0.000453788
2 *768:A 0.000453788
3 *768:A *166:14 4.01768e-05
*RES
1 tx_data[0] *768:A 22.6571 
*END

*D_NET *16 0.00121341
*CONN
*P tx_data[1] I
*I *769:A I *D sky130_fd_sc_hd__clkbuf_1
*CAP
1 tx_data[1] 0.000515327
2 *769:A 0.000515327
3 *769:A *743:A 8.50152e-05
4 *769:A *780:A 9.77414e-05
*RES
1 tx_data[1] *769:A 24.425 
*END

*D_NET *17 0.000642066
*CONN
*P tx_data[2] I
*I *770:A I *D sky130_fd_sc_hd__buf_1
*CAP
1 tx_data[2] 0.000321033
2 *770:A 0.000321033
3 *770:A *781:A 0
*RES
1 tx_data[2] *770:A 21.4768 
*END

*D_NET *18 0.00228131
*CONN
*P tx_data[3] I
*I *771:A I *D sky130_fd_sc_hd__clkbuf_1
*CAP
1 tx_data[3] 0.000915763
2 *771:A 0.000915763
3 *771:A *682:A 0
4 *771:A *689:A1 0.000175493
5 *771:A *780:A 0.000274294
*RES
1 tx_data[3] *771:A 27.9717 
*END

*D_NET *19 0.00110049
*CONN
*P tx_data[4] I
*I *772:A I *D sky130_fd_sc_hd__clkbuf_1
*CAP
1 tx_data[4] 0.000540599
2 *772:A 0.000540599
3 *772:A *683:A1 1.92905e-05
*RES
1 tx_data[4] *772:A 24.175 
*END

*D_NET *20 0.000944346
*CONN
*P tx_data[5] I
*I *773:A I *D sky130_fd_sc_hd__buf_1
*CAP
1 tx_data[5] 0.000462528
2 *773:A 0.000462528
3 *773:A *198:8 1.92905e-05
*RES
1 tx_data[5] *773:A 22.6571 
*END

*D_NET *21 0.00063785
*CONN
*P tx_data[6] I
*I *774:A I *D sky130_fd_sc_hd__clkbuf_1
*CAP
1 tx_data[6] 0.000318925
2 *774:A 0.000318925
*RES
1 tx_data[6] *774:A 19.9443 
*END

*D_NET *22 0.00100303
*CONN
*P tx_data[7] I
*I *766:A I *D sky130_fd_sc_hd__clkbuf_1
*CAP
1 tx_data[7] 0.000501514
2 *766:A 0.000501514
*RES
1 tx_data[7] *766:A 23.3536 
*END

*D_NET *23 0.000727231
*CONN
*P tx_done O
*I *784:X O *D sky130_fd_sc_hd__buf_2
*CAP
1 tx_done 0.00028127
2 *784:X 0.00028127
3 tx_done *155:10 0.00016469
*RES
1 *784:X tx_done 19.9443 
*END

*D_NET *24 0.00199855
*CONN
*I *691:D I *D sky130_fd_sc_hd__dfstp_1
*I *611:B1 I *D sky130_fd_sc_hd__o22a_1
*I *610:X O *D sky130_fd_sc_hd__o21a_1
*CAP
1 *691:D 9.56437e-05
2 *611:B1 7.6599e-05
3 *610:X 0.000148636
4 *24:6 0.000320879
5 *611:B1 *587:D_N 3.15815e-05
6 *611:B1 *611:A2 2.67685e-05
7 *611:B1 *91:10 0.000185403
8 *611:B1 *207:34 6.05161e-06
9 *691:D *198:12 7.18509e-05
10 *24:6 *580:B 0.000272033
11 *24:6 *712:CLK 0.000397236
12 *24:6 *91:10 0.000264546
13 *24:6 *207:34 0.000101323
*RES
1 *610:X *24:6 15.175 
2 *24:6 *611:B1 11.8 
3 *24:6 *691:D 20.2464 
*END

*D_NET *25 0.000657136
*CONN
*I *693:D I *D sky130_fd_sc_hd__dfrtp_1
*I *643:Y O *D sky130_fd_sc_hd__nor2_1
*CAP
1 *693:D 0.000266438
2 *643:Y 0.000266438
3 *693:D *206:12 0.00012426
*RES
1 *643:Y *693:D 32.5464 
*END

*D_NET *26 0.000963651
*CONN
*I *705:D I *D sky130_fd_sc_hd__dfrtp_1
*I *637:Y O *D sky130_fd_sc_hd__nor2_1
*CAP
1 *705:D 0.000351598
2 *637:Y 0.000351598
3 *705:D *704:RESET_B 4.26814e-05
4 *705:D *714:CLK 0.000113153
5 *705:D *144:12 0
6 *705:D *188:26 0.00010462
*RES
1 *637:Y *705:D 34.2607 
*END

*D_NET *27 0.00107605
*CONN
*I *706:D I *D sky130_fd_sc_hd__dfrtp_1
*I *645:X O *D sky130_fd_sc_hd__clkbuf_1
*CAP
1 *706:D 0.000254145
2 *645:X 0.000254145
3 *706:D *642:C1 0.000100951
4 *706:D *706:CLK 5.52302e-05
5 *706:D *143:10 0.000107104
6 *706:D *143:45 3.41848e-05
7 *706:D *198:12 0.00027029
*RES
1 *645:X *706:D 34.6357 
*END

*D_NET *28 0.000525139
*CONN
*I *759:A I *D sky130_fd_sc_hd__dlygate4sd3_1
*I *633:X O *D sky130_fd_sc_hd__a21o_1
*CAP
1 *759:A 6.64922e-05
2 *633:X 6.64922e-05
3 *759:A *707:D 0.000268782
4 *759:A *140:40 1.92789e-05
5 *759:A *159:28 0.000104094
*RES
1 *633:X *759:A 21.1893 
*END

*D_NET *29 0.000133673
*CONN
*I *738:A I *D sky130_fd_sc_hd__dlygate4sd3_1
*I *636:X O *D sky130_fd_sc_hd__a32o_1
*CAP
1 *738:A 1.16062e-05
2 *636:X 1.16062e-05
3 *738:A *636:A2 5.52302e-05
4 *738:A *636:A3 5.52302e-05
*RES
1 *636:X *738:A 19.1357 
*END

*D_NET *30 0.000356519
*CONN
*I *703:D I *D sky130_fd_sc_hd__dfstp_1
*I *632:X O *D sky130_fd_sc_hd__a21o_1
*CAP
1 *703:D 0.000116216
2 *632:X 0.000116216
3 *703:D *642:C1 6.74911e-05
4 *703:D *127:96 5.65955e-05
*RES
1 *632:X *703:D 29.7786 
*END

*D_NET *31 0.000375634
*CONN
*I *740:A I *D sky130_fd_sc_hd__dlygate4sd3_1
*I *634:X O *D sky130_fd_sc_hd__a21o_1
*CAP
1 *740:A 0.000147777
2 *634:X 0.000147777
3 *740:A *634:B1 8.00806e-05
*RES
1 *634:X *740:A 30.3143 
*END

*D_NET *32 0.00198568
*CONN
*I *673:C I *D sky130_fd_sc_hd__and3_1
*I *691:SET_B I *D sky130_fd_sc_hd__dfstp_1
*I *646:Y O *D sky130_fd_sc_hd__inv_2
*CAP
1 *673:C 0.000231355
2 *691:SET_B 0.000195268
3 *646:Y 3.92213e-05
4 *32:8 0.000465845
5 *673:C *577:A 0.000131409
6 *673:C *635:A 0.000156992
7 *673:C *673:B 1.15172e-05
8 *673:C *198:12 0
9 *691:SET_B *577:A 6.74815e-05
10 *691:SET_B *635:A 7.80929e-05
11 *691:SET_B *82:83 0
12 *691:SET_B *126:30 0.000220473
13 *691:SET_B *142:62 0.000332796
14 *32:8 *82:83 5.52302e-05
*RES
1 *646:Y *32:8 14.3357 
2 *32:8 *691:SET_B 10.6964 
3 *32:8 *673:C 19.2464 
*END

*D_NET *33 0.000725941
*CONN
*I *692:RESET_B I *D sky130_fd_sc_hd__dfrtp_2
*I *648:Y O *D sky130_fd_sc_hd__inv_2
*CAP
1 *692:RESET_B 0.00024413
2 *648:Y 0.00024413
3 *692:RESET_B *616:A1 0.000150119
4 *692:RESET_B *701:CLK 2.51837e-05
5 *692:RESET_B *110:12 2.44318e-05
6 *692:RESET_B *166:14 3.79467e-05
*RES
1 *648:Y *692:RESET_B 22.2911 
*END

*D_NET *34 0.000349391
*CONN
*I *693:RESET_B I *D sky130_fd_sc_hd__dfrtp_1
*I *649:Y O *D sky130_fd_sc_hd__inv_2
*CAP
1 *693:RESET_B 0.000110298
2 *649:Y 0.000110298
3 *693:RESET_B *649:A 5.71472e-05
4 *693:RESET_B *206:12 7.16484e-05
*RES
1 *649:Y *693:RESET_B 11.8268 
*END

*D_NET *35 0.00100401
*CONN
*I *694:RESET_B I *D sky130_fd_sc_hd__dfrtp_1
*I *650:Y O *D sky130_fd_sc_hd__inv_2
*CAP
1 *694:RESET_B 0.000363784
2 *650:Y 0.000363784
3 *694:RESET_B *694:CLK 4.8409e-05
4 *694:RESET_B *126:30 2.05938e-05
5 *694:RESET_B *126:56 3.57488e-05
6 *694:RESET_B *142:12 5.66157e-05
7 *694:RESET_B *198:12 9.01238e-05
8 *694:RESET_B *207:14 2.49484e-05
*RES
1 *650:Y *694:RESET_B 24.0232 
*END

*D_NET *36 0.000782534
*CONN
*I *695:RESET_B I *D sky130_fd_sc_hd__dfrtp_4
*I *651:Y O *D sky130_fd_sc_hd__inv_2
*CAP
1 *695:RESET_B 0.000234227
2 *651:Y 0.000234227
3 *695:RESET_B *627:A2 0.000169014
4 *695:RESET_B *627:B1 0
5 *695:RESET_B *628:A1 3.93893e-05
6 *695:RESET_B *628:A2 0
7 *695:RESET_B *208:10 6.8646e-06
8 *695:RESET_B *208:14 9.88136e-05
*RES
1 *651:Y *695:RESET_B 22.9518 
*END

*D_NET *37 0.00188339
*CONN
*I *696:RESET_B I *D sky130_fd_sc_hd__dfrtp_4
*I *652:Y O *D sky130_fd_sc_hd__inv_2
*CAP
1 *696:RESET_B 0.000634091
2 *652:Y 0.000634091
3 *696:RESET_B *627:A2 1.97756e-05
4 *696:RESET_B *628:B1 2.14658e-05
5 *696:RESET_B *652:A 2.89114e-05
6 *696:RESET_B *696:CLK 0.000374652
7 *696:RESET_B *696:D 0.000159981
8 *696:RESET_B *143:49 1.04232e-05
*RES
1 *652:Y *696:RESET_B 21.1661 
*END

*D_NET *38 0.000544486
*CONN
*I *697:RESET_B I *D sky130_fd_sc_hd__dfrtp_1
*I *653:Y O *D sky130_fd_sc_hd__inv_2
*CAP
1 *697:RESET_B 0.000148328
2 *653:Y 0.000148328
3 *697:RESET_B *653:A 0.000104974
4 *697:RESET_B *683:A1 0.000142856
5 *697:RESET_B *776:A 0
*RES
1 *653:Y *697:RESET_B 20.9964 
*END

*D_NET *39 0.000455432
*CONN
*I *698:SET_B I *D sky130_fd_sc_hd__dfstp_1
*I *654:Y O *D sky130_fd_sc_hd__inv_2
*CAP
1 *698:SET_B 0.000108817
2 *654:Y 0.000108817
3 *698:SET_B *126:16 9.14786e-05
4 *698:SET_B *127:96 5.71472e-05
5 *698:SET_B *198:12 8.91726e-05
*RES
1 *654:Y *698:SET_B 21.0857 
*END

*D_NET *40 0.000280446
*CONN
*I *699:RESET_B I *D sky130_fd_sc_hd__dfrtp_1
*I *655:Y O *D sky130_fd_sc_hd__inv_2
*CAP
1 *699:RESET_B 0.000140223
2 *655:Y 0.000140223
3 *699:RESET_B *784:A 0
4 *699:RESET_B *82:14 0
5 *699:RESET_B *82:83 0
*RES
1 *655:Y *699:RESET_B 20.55 
*END

*D_NET *41 0.000566361
*CONN
*I *700:RESET_B I *D sky130_fd_sc_hd__dfrtp_1
*I *656:Y O *D sky130_fd_sc_hd__inv_2
*CAP
1 *700:RESET_B 0.000139063
2 *656:Y 0.000139063
3 *700:RESET_B *581:A2 5.49995e-05
4 *700:RESET_B *588:B 1.12578e-05
5 *700:RESET_B *591:A 7.74135e-05
6 *700:RESET_B *85:49 4.27935e-05
7 *700:RESET_B *139:10 0.000101771
*RES
1 *656:Y *700:RESET_B 21.0589 
*END

*D_NET *42 0.000283205
*CONN
*I *701:RESET_B I *D sky130_fd_sc_hd__dfrtp_4
*I *657:Y O *D sky130_fd_sc_hd__inv_2
*CAP
1 *701:RESET_B 0.000121951
2 *657:Y 0.000121951
3 *701:RESET_B *648:A 3.18676e-05
4 *701:RESET_B *126:38 7.43578e-06
5 *701:RESET_B *198:12 0
*RES
1 *657:Y *701:RESET_B 20.175 
*END

*D_NET *43 0.000555066
*CONN
*I *702:RESET_B I *D sky130_fd_sc_hd__dfrtp_4
*I *659:Y O *D sky130_fd_sc_hd__inv_2
*CAP
1 *702:RESET_B 0.000150928
2 *659:Y 0.000150928
3 *702:RESET_B *664:A 0.000153054
4 *702:RESET_B *702:D 0
5 *702:RESET_B *707:RESET_B 8.00806e-05
6 *702:RESET_B *783:A 0
7 *702:RESET_B *140:46 2.00751e-05
*RES
1 *659:Y *702:RESET_B 22.0679 
*END

*D_NET *44 0.000425085
*CONN
*I *703:SET_B I *D sky130_fd_sc_hd__dfstp_1
*I *660:Y O *D sky130_fd_sc_hd__inv_2
*CAP
1 *703:SET_B 0.00011014
2 *660:Y 0.00011014
3 *703:SET_B *760:A 0
4 *703:SET_B *763:A 0
5 *703:SET_B *127:102 9.25014e-06
6 *703:SET_B *127:132 0.000195555
7 *703:SET_B *219:12 0
*RES
1 *660:Y *703:SET_B 20.8536 
*END

*D_NET *45 0.000442536
*CONN
*I *704:RESET_B I *D sky130_fd_sc_hd__dfrtp_4
*I *661:Y O *D sky130_fd_sc_hd__inv_2
*CAP
1 *704:RESET_B 0.000199927
2 *661:Y 0.000199927
3 *705:D *704:RESET_B 4.26814e-05
*RES
1 *661:Y *704:RESET_B 22.0679 
*END

*D_NET *46 0.000849268
*CONN
*I *705:RESET_B I *D sky130_fd_sc_hd__dfrtp_1
*I *662:Y O *D sky130_fd_sc_hd__inv_2
*CAP
1 *705:RESET_B 0.000350935
2 *662:Y 0.000350935
3 *705:RESET_B *143:92 0.000147399
*RES
1 *662:Y *705:RESET_B 14.4339 
*END

*D_NET *47 0.000274187
*CONN
*I *706:RESET_B I *D sky130_fd_sc_hd__dfrtp_1
*I *663:Y O *D sky130_fd_sc_hd__inv_2
*CAP
1 *706:RESET_B 0.0001359
2 *663:Y 0.0001359
3 *706:RESET_B *642:C1 2.38651e-06
4 *706:RESET_B *143:10 0
5 *706:RESET_B *143:14 0
*RES
1 *663:Y *706:RESET_B 20.55 
*END

*D_NET *48 0.00107231
*CONN
*I *707:RESET_B I *D sky130_fd_sc_hd__dfrtp_1
*I *664:Y O *D sky130_fd_sc_hd__inv_2
*CAP
1 *707:RESET_B 0.000158936
2 *664:Y 0.000158936
3 *707:RESET_B *664:A 3.90513e-05
4 *707:RESET_B *707:D 0.000177373
5 *707:RESET_B *127:45 1.76039e-05
6 *707:RESET_B *140:40 0.000347893
7 *707:RESET_B *140:46 9.24395e-05
8 *702:RESET_B *707:RESET_B 8.00806e-05
*RES
1 *664:Y *707:RESET_B 23.8982 
*END

*D_NET *49 0.000763314
*CONN
*I *708:RESET_B I *D sky130_fd_sc_hd__dfrtp_1
*I *665:Y O *D sky130_fd_sc_hd__inv_2
*CAP
1 *708:RESET_B 0.000291608
2 *665:Y 0.000291608
3 *708:RESET_B *589:A0 5.18233e-05
4 *708:RESET_B *669:A 3.69047e-06
5 *708:RESET_B *775:A 0
6 *708:RESET_B *784:A 4.83905e-05
7 *708:RESET_B *92:20 7.61932e-05
*RES
1 *665:Y *708:RESET_B 22.8982 
*END

*D_NET *50 0.000349451
*CONN
*I *709:RESET_B I *D sky130_fd_sc_hd__dfrtp_1
*I *666:Y O *D sky130_fd_sc_hd__inv_2
*CAP
1 *709:RESET_B 6.32264e-05
2 *666:Y 6.32264e-05
3 *709:RESET_B *605:A 5.31541e-05
4 *709:RESET_B *127:96 7.83659e-05
5 *709:RESET_B *139:26 9.14786e-05
*RES
1 *666:Y *709:RESET_B 20.55 
*END

*D_NET *51 0.000336117
*CONN
*I *710:RESET_B I *D sky130_fd_sc_hd__dfrtp_1
*I *667:Y O *D sky130_fd_sc_hd__inv_2
*CAP
1 *710:RESET_B 0.000118537
2 *667:Y 0.000118537
3 *710:RESET_B *755:A 9.90431e-05
*RES
1 *667:Y *710:RESET_B 11.4161 
*END

*D_NET *52 0.000349355
*CONN
*I *711:RESET_B I *D sky130_fd_sc_hd__dfrtp_1
*I *668:Y O *D sky130_fd_sc_hd__inv_2
*CAP
1 *711:RESET_B 0.000116201
2 *668:Y 0.000116201
3 *711:RESET_B *711:CLK 0.000116952
*RES
1 *668:Y *711:RESET_B 11.4161 
*END

*D_NET *53 0.00143055
*CONN
*I *712:RESET_B I *D sky130_fd_sc_hd__dfrtp_1
*I *669:Y O *D sky130_fd_sc_hd__inv_2
*CAP
1 *712:RESET_B 0.000271083
2 *669:Y 0.000271083
3 *712:RESET_B *758:A 0.000174682
4 *712:RESET_B *775:A 0.000152064
5 *712:RESET_B *150:10 2.85321e-05
6 *712:RESET_B *155:10 0.00053311
*RES
1 *669:Y *712:RESET_B 26.3982 
*END

*D_NET *54 0.000795152
*CONN
*I *713:RESET_B I *D sky130_fd_sc_hd__dfrtp_1
*I *670:Y O *D sky130_fd_sc_hd__inv_2
*CAP
1 *713:RESET_B 0.000196442
2 *670:Y 0.000196442
3 *713:RESET_B *754:A 8.7498e-05
4 *713:RESET_B *82:93 1.98839e-05
5 *713:RESET_B *127:30 0.000102545
6 *713:RESET_B *144:39 0.000139913
7 *713:RESET_B *166:14 5.24274e-05
*RES
1 *670:Y *713:RESET_B 23.0232 
*END

*D_NET *55 0.000383049
*CONN
*I *714:RESET_B I *D sky130_fd_sc_hd__dfrtp_1
*I *671:Y O *D sky130_fd_sc_hd__inv_2
*CAP
1 *714:RESET_B 7.37462e-05
2 *671:Y 7.37462e-05
3 *714:RESET_B *714:D 5.83233e-05
4 *714:RESET_B *775:A 0
5 *714:RESET_B *144:18 0.000177234
*RES
1 *671:Y *714:RESET_B 20.55 
*END

*D_NET *56 0.00146695
*CONN
*I *715:RESET_B I *D sky130_fd_sc_hd__dfrtp_1
*I *672:Y O *D sky130_fd_sc_hd__inv_2
*CAP
1 *715:RESET_B 0.000404909
2 *672:Y 0.000404909
3 *715:RESET_B *598:S 0.00018527
4 *715:RESET_B *713:CLK 3.82419e-05
5 *715:RESET_B *715:CLK 1.2828e-05
6 *715:RESET_B *715:D 9.9129e-05
7 *715:RESET_B *746:A 0.000176184
8 *715:RESET_B *140:96 0.000145484
*RES
1 *672:Y *715:RESET_B 26.7375 
*END

*D_NET *57 0.000581731
*CONN
*I *749:A I *D sky130_fd_sc_hd__dlygate4sd3_1
*I *630:Y O *D sky130_fd_sc_hd__a21oi_1
*CAP
1 *749:A 0.000222476
2 *630:Y 0.000222476
3 *749:A *630:A1 3.84349e-05
4 *749:A *683:A1 0
5 *749:A *745:A 9.83442e-05
*RES
1 *630:Y *749:A 31.9393 
*END

*D_NET *58 0.000686131
*CONN
*I *696:D I *D sky130_fd_sc_hd__dfrtp_4
*I *628:Y O *D sky130_fd_sc_hd__a21oi_1
*CAP
1 *696:D 0.000153129
2 *628:Y 0.000153129
3 *696:D *627:A2 0
4 *696:D *627:B1 0.000156817
5 *696:D *628:B1 6.30744e-05
6 *696:RESET_B *696:D 0.000159981
*RES
1 *628:Y *696:D 22.7607 
*END

*D_NET *59 0.000548631
*CONN
*I *735:A I *D sky130_fd_sc_hd__dlygate4sd3_1
*I *623:X O *D sky130_fd_sc_hd__a32o_1
*CAP
1 *735:A 0.000197374
2 *623:X 0.000197374
3 *735:A *695:CLK 7.80929e-05
4 *735:A *697:D 0
5 *735:A *745:A 0
6 *735:A *776:A 0
7 *735:A *143:45 6.65398e-05
8 *735:A *198:12 9.25014e-06
9 *735:A *209:8 0
*RES
1 *623:X *735:A 31.6714 
*END

*D_NET *60 0.000530227
*CONN
*I *761:A I *D sky130_fd_sc_hd__dlygate4sd3_1
*I *621:X O *D sky130_fd_sc_hd__a21o_1
*CAP
1 *761:A 0.000170821
2 *621:X 0.000170821
3 *761:A *621:A1 0
4 *761:A *144:35 0.000188586
*RES
1 *621:X *761:A 31.0107 
*END

*D_NET *61 0.000627553
*CONN
*I *700:D I *D sky130_fd_sc_hd__dfrtp_1
*I *619:X O *D sky130_fd_sc_hd__clkbuf_1
*CAP
1 *700:D 0.000134662
2 *619:X 0.000134662
3 *700:D *597:A 0.000146254
4 *700:D *81:69 1.73698e-05
5 *700:D *127:30 0.000103437
6 *700:D *166:14 9.11671e-05
*RES
1 *619:X *700:D 31.3679 
*END

*D_NET *62 0.000330027
*CONN
*I *701:D I *D sky130_fd_sc_hd__dfrtp_4
*I *617:X O *D sky130_fd_sc_hd__a22o_1
*CAP
1 *701:D 0.00011138
2 *617:X 0.00011138
3 *701:D *110:12 0
4 *701:D *201:12 0.000107267
*RES
1 *617:X *701:D 29.7786 
*END

*D_NET *63 0.00138118
*CONN
*I *702:D I *D sky130_fd_sc_hd__dfrtp_4
*I *613:X O *D sky130_fd_sc_hd__a22o_1
*CAP
1 *702:D 0.000361097
2 *613:X 0.000361097
3 *702:D *584:A2 0.000137939
4 *702:D *613:A2 9.33978e-07
5 *702:D *633:A2 1.07652e-05
6 *702:D *707:D 0.000148189
7 *702:D *88:10 0.000348554
8 *702:D *202:12 1.26059e-05
9 *702:RESET_B *702:D 0
*RES
1 *613:X *702:D 35.2786 
*END

*D_NET *64 0.00253294
*CONN
*I *730:A I *D sky130_fd_sc_hd__dlygate4sd3_1
*I *611:X O *D sky130_fd_sc_hd__o22a_1
*CAP
1 *730:A 0.000614801
2 *611:X 0.000614801
3 *730:A *587:D_N 6.70939e-05
4 *730:A *612:B_N 0.000119251
5 *730:A *615:B 5.66708e-05
6 *730:A *764:A 0.000387281
7 *730:A *81:29 0.0001802
8 *730:A *87:12 9.67754e-05
9 *730:A *91:10 3.11088e-05
10 *730:A *107:10 5.33005e-05
11 *730:A *139:10 0.000169095
12 *730:A *201:29 1.00887e-05
13 *730:A *201:42 1.73698e-05
14 *730:A *201:50 4.58194e-05
15 *730:A *202:71 4.27842e-06
16 *730:A *202:77 6.50098e-05
*RES
1 *611:X *730:A 41.8321 
*END

*D_NET *65 0.000190671
*CONN
*I *708:D I *D sky130_fd_sc_hd__dfrtp_1
*I *608:X O *D sky130_fd_sc_hd__clkbuf_1
*CAP
1 *708:D 7.02487e-05
2 *608:X 7.02487e-05
3 *708:D *608:A 3.92854e-05
4 *708:D *784:A 1.08881e-05
*RES
1 *608:X *708:D 28.8188 
*END

*D_NET *66 0.00047313
*CONN
*I *709:D I *D sky130_fd_sc_hd__dfrtp_1
*I *605:X O *D sky130_fd_sc_hd__clkbuf_1
*CAP
1 *709:D 0.000172485
2 *605:X 0.000172485
3 *709:D *129:10 0.000128161
4 *709:D *166:14 0
*RES
1 *605:X *709:D 31.0107 
*END

*D_NET *67 0.000465039
*CONN
*I *710:D I *D sky130_fd_sc_hd__dfrtp_1
*I *602:X O *D sky130_fd_sc_hd__clkbuf_1
*CAP
1 *710:D 0.000229494
2 *602:X 0.000229494
3 *710:D *710:CLK 6.05161e-06
4 *710:D *782:A 0
*RES
1 *602:X *710:D 31.4214 
*END

*D_NET *68 0.000653155
*CONN
*I *711:D I *D sky130_fd_sc_hd__dfrtp_1
*I *599:X O *D sky130_fd_sc_hd__clkbuf_1
*CAP
1 *711:D 0.000233027
2 *599:X 0.000233027
3 *711:D *778:A 0.0001871
*RES
1 *599:X *711:D 31.1179 
*END

*D_NET *69 0.00027989
*CONN
*I *712:D I *D sky130_fd_sc_hd__dfrtp_1
*I *596:X O *D sky130_fd_sc_hd__clkbuf_1
*CAP
1 *712:D 0.000124391
2 *596:X 0.000124391
3 *712:D *712:CLK 3.11088e-05
*RES
1 *596:X *712:D 20.7964 
*END

*D_NET *70 0.000747475
*CONN
*I *713:D I *D sky130_fd_sc_hd__dfrtp_1
*I *593:X O *D sky130_fd_sc_hd__a41o_1
*CAP
1 *713:D 0.000278116
2 *593:X 0.000278116
3 *713:D *672:A 5.71472e-05
4 *713:D *713:CLK 3.79467e-05
5 *713:D *82:126 9.61483e-05
*RES
1 *593:X *713:D 31.9393 
*END

*D_NET *71 0.00107965
*CONN
*I *714:D I *D sky130_fd_sc_hd__dfrtp_1
*I *590:X O *D sky130_fd_sc_hd__clkbuf_1
*CAP
1 *714:D 0.000414954
2 *590:X 0.000414954
3 *714:D *590:A 8.00806e-05
4 *714:D *775:A 0
5 *714:D *144:18 0.000111337
6 *714:RESET_B *714:D 5.83233e-05
*RES
1 *590:X *714:D 35.3857 
*END

*D_NET *72 0.000482737
*CONN
*I *715:D I *D sky130_fd_sc_hd__dfrtp_1
*I *585:X O *D sky130_fd_sc_hd__a41o_1
*CAP
1 *715:D 0.000132745
2 *585:X 0.000132745
3 *715:D *127:30 0.000118118
4 *715:RESET_B *715:D 9.9129e-05
*RES
1 *585:X *715:D 29.8857 
*END

*D_NET *73 0.000381228
*CONN
*I *716:D I *D sky130_fd_sc_hd__dfxtp_1
*I *676:X O *D sky130_fd_sc_hd__clkbuf_1
*CAP
1 *716:D 0.000114662
2 *676:X 0.000114662
3 *716:D *709:CLK 4.93196e-05
4 *716:D *716:CLK 0.000102583
*RES
1 *676:X *716:D 29.9259 
*END

*D_NET *74 0.000425251
*CONN
*I *717:D I *D sky130_fd_sc_hd__dfxtp_1
*I *678:X O *D sky130_fd_sc_hd__clkbuf_1
*CAP
1 *717:D 0.000121777
2 *678:X 0.000121777
3 *717:D *678:A 1.33343e-05
4 *717:D *141:57 0.000126934
5 *717:D *141:70 4.14279e-05
*RES
1 *678:X *717:D 21.0688 
*END

*D_NET *75 0.00151832
*CONN
*I *718:D I *D sky130_fd_sc_hd__dfxtp_1
*I *680:X O *D sky130_fd_sc_hd__clkbuf_1
*CAP
1 *718:D 0.000625972
2 *680:X 0.000625972
3 *718:D *638:A0 0
4 *718:D *716:CLK 0.000111106
5 *718:D *141:14 7.58841e-05
6 *718:D *141:38 7.93838e-05
*RES
1 *680:X *718:D 35.9973 
*END

*D_NET *76 0.00105132
*CONN
*I *719:D I *D sky130_fd_sc_hd__dfxtp_1
*I *682:X O *D sky130_fd_sc_hd__clkbuf_1
*CAP
1 *719:D 0.000387543
2 *682:X 0.000387543
3 *719:D *682:A 7.83587e-05
4 *719:D *689:A1 1.40306e-05
5 *719:D *723:D 5.56943e-05
6 *719:D *141:74 0.000128154
7 rx_data[5] *719:D 0
*RES
1 *682:X *719:D 35.2071 
*END

*D_NET *77 0.000561742
*CONN
*I *720:D I *D sky130_fd_sc_hd__dfxtp_1
*I *684:X O *D sky130_fd_sc_hd__clkbuf_1
*CAP
1 *720:D 0.000153969
2 *684:X 0.000153969
3 *720:D *684:A 0
4 *720:D *129:80 9.90431e-05
5 *720:D *151:10 0.000154762
*RES
1 *684:X *720:D 30.658 
*END

*D_NET *78 0.000375019
*CONN
*I *721:D I *D sky130_fd_sc_hd__dfxtp_1
*I *686:X O *D sky130_fd_sc_hd__clkbuf_1
*CAP
1 *721:D 0.000102258
2 *686:X 0.000102258
3 *721:D *686:A 0.000170503
*RES
1 *686:X *721:D 20.658 
*END

*D_NET *79 0.000425582
*CONN
*I *722:D I *D sky130_fd_sc_hd__dfxtp_1
*I *688:X O *D sky130_fd_sc_hd__clkbuf_1
*CAP
1 *722:D 0.000184442
2 *688:X 0.000184442
3 *722:D *722:CLK 5.66971e-05
*RES
1 *688:X *722:D 30.5688 
*END

*D_NET *80 0.000500352
*CONN
*I *723:D I *D sky130_fd_sc_hd__dfxtp_1
*I *690:X O *D sky130_fd_sc_hd__clkbuf_1
*CAP
1 *723:D 0.000177298
2 *690:X 0.000177298
3 *723:D *690:A 0
4 *723:D *722:CLK 5.5782e-05
5 *723:D *141:70 1.64343e-05
6 *723:D *141:74 1.78447e-05
7 *719:D *723:D 5.56943e-05
*RES
1 *690:X *723:D 31.533 
*END

*D_NET *81 0.00830468
*CONN
*I *579:C I *D sky130_fd_sc_hd__or3_1
*I *588:B I *D sky130_fd_sc_hd__or3_1
*I *594:B I *D sky130_fd_sc_hd__or3_1
*I *614:B I *D sky130_fd_sc_hd__nor2_1
*I *578:A2 I *D sky130_fd_sc_hd__o21ai_1
*I *593:A2 I *D sky130_fd_sc_hd__a41o_1
*I *585:A2 I *D sky130_fd_sc_hd__a41o_1
*I *618:S I *D sky130_fd_sc_hd__mux2_1
*I *600:C I *D sky130_fd_sc_hd__or4_1
*I *582:B I *D sky130_fd_sc_hd__and2_1
*I *576:X O *D sky130_fd_sc_hd__buf_2
*CAP
1 *579:C 4.13015e-05
2 *588:B 0.000100853
3 *594:B 0.000101449
4 *614:B 3.31197e-05
5 *578:A2 0
6 *593:A2 0.000261922
7 *585:A2 1.13257e-05
8 *618:S 0.000299778
9 *600:C 6.97887e-05
10 *582:B 0.000157929
11 *576:X 0
12 *81:69 0.000530476
13 *81:46 0.000575936
14 *81:33 0.000202044
15 *81:31 0.000202308
16 *81:29 0.000172733
17 *81:12 0.000277617
18 *81:10 0.000237839
19 *81:8 0.00025267
20 *81:4 0.000125784
21 *579:C *576:A 2.04681e-05
22 *579:C *579:A 0.000100258
23 *579:C *85:49 9.84729e-05
24 *582:B *612:B_N 9.15842e-06
25 *582:B *615:B 0.000121891
26 *582:B *636:A1 1.25366e-05
27 *582:B *201:42 4.49682e-05
28 *582:B *201:68 2.06251e-05
29 *582:B *202:79 3.3605e-05
30 *585:A2 *585:B1 1.19813e-05
31 *588:B *90:20 0.000194652
32 *588:B *139:10 5.53127e-05
33 *593:A2 *585:A3 7.14923e-05
34 *593:A2 *585:B1 8.48678e-06
35 *593:A2 *598:S 0.000169707
36 *593:A2 *672:A 9.66977e-05
37 *593:A2 *82:101 4.9906e-05
38 *594:B *90:20 5.33005e-05
39 *594:B *201:68 0.000180207
40 *600:C *600:A 3.25642e-05
41 *600:C *202:45 5.33005e-05
42 *614:B *201:50 8.95839e-06
43 *618:S *583:B 9.25014e-06
44 *618:S *597:A 5.51716e-05
45 *618:S *600:B 1.00887e-05
46 *618:S *613:A1 9.71197e-05
47 *618:S *613:A2 4.47792e-05
48 *618:S *613:B1 9.90431e-05
49 *618:S *619:A 0.000138565
50 *618:S *202:34 0.000226323
51 *81:8 *576:A 6.05161e-06
52 *81:8 *85:49 2.05612e-05
53 *81:10 *591:A 0.000121897
54 *81:10 *90:20 0.000166973
55 *81:10 *139:10 4.40513e-06
56 *81:10 *201:68 1.12578e-05
57 *81:12 *579:A 1.59099e-05
58 *81:12 *90:20 3.14003e-05
59 *81:12 *201:68 5.40984e-05
60 *81:12 *202:79 8.67814e-06
61 *81:29 *201:50 9.85599e-06
62 *81:29 *202:77 0.00022367
63 *81:31 *581:A1 0.000272344
64 *81:31 *201:50 1.62025e-05
65 *81:31 *202:60 8.34321e-05
66 *81:31 *202:71 0.000272338
67 *81:31 *202:77 5.50052e-05
68 *81:33 *202:45 4.08637e-05
69 *81:33 *202:60 0.000183711
70 *81:69 *585:A1 1.0484e-05
71 *81:69 *585:A3 5.47001e-05
72 *81:69 *585:A4 9.66977e-05
73 *81:69 *593:A1 0.000193004
74 *81:69 *597:A 0.000147921
75 *81:69 *600:B 6.73181e-05
76 *81:69 *700:CLK 6.58992e-05
77 *81:69 *127:30 7.74135e-05
78 *700:D *81:69 1.73698e-05
79 *700:RESET_B *588:B 1.12578e-05
80 *730:A *81:29 0.0001802
*RES
1 *576:X *81:4 9.3 
2 *81:4 *81:8 5.44643 
3 *81:8 *81:10 2.25 
4 *81:10 *81:12 1.64286 
5 *81:12 *582:B 17.3179 
6 *81:12 *81:29 6.67857 
7 *81:29 *81:31 3.82143 
8 *81:31 *81:33 2.17857 
9 *81:33 *600:C 10.675 
10 *81:33 *81:46 4.92857 
11 *81:46 *618:S 20.9964 
12 *81:46 *81:69 10.9821 
13 *81:69 *585:A2 9.72857 
14 *81:69 *593:A2 23.1393 
15 *81:31 *578:A2 9.3 
16 *81:29 *614:B 10.0321 
17 *81:10 *594:B 15.9964 
18 *81:8 *588:B 16.3536 
19 *81:4 *579:C 10.9786 
*END

*D_NET *82 0.0166642
*CONN
*I *604:A0 I *D sky130_fd_sc_hd__mux2_1
*I *593:A3 I *D sky130_fd_sc_hd__a41o_1
*I *598:A0 I *D sky130_fd_sc_hd__mux2_1
*I *601:A0 I *D sky130_fd_sc_hd__mux2_1
*I *585:A3 I *D sky130_fd_sc_hd__a41o_1
*I *589:A0 I *D sky130_fd_sc_hd__mux2_1
*I *595:A0 I *D sky130_fd_sc_hd__mux2_1
*I *607:A1 I *D sky130_fd_sc_hd__mux2_1
*I *610:B1 I *D sky130_fd_sc_hd__o21a_1
*I *643:B I *D sky130_fd_sc_hd__nor2_1
*I *577:X O *D sky130_fd_sc_hd__buf_2
*CAP
1 *604:A0 0
2 *593:A3 0
3 *598:A0 0
4 *601:A0 0.000405143
5 *585:A3 0.000146729
6 *589:A0 0.000414857
7 *595:A0 0.000353137
8 *607:A1 0
9 *610:B1 1.21804e-05
10 *643:B 0.000385226
11 *577:X 0.000242754
12 *82:126 0.000875833
13 *82:101 0.000797275
14 *82:93 0.00060453
15 *82:83 0.00112809
16 *82:55 0.000873035
17 *82:46 0.000615012
18 *82:18 0.000601616
19 *82:14 0.000982988
20 *82:8 0.00121498
21 *585:A3 *593:A4 6.52632e-05
22 *585:A3 *598:S 1.69252e-05
23 *585:A3 *86:10 2.30913e-05
24 *589:A0 *607:S 6.67257e-05
25 *589:A0 *775:A 0
26 *589:A0 *92:20 0.000340781
27 *589:A0 *144:18 2.60251e-05
28 *595:A0 *595:A1 5.4959e-05
29 *595:A0 *607:S 7.95286e-05
30 *595:A0 *96:18 1.62025e-05
31 *601:A0 *598:A1 6.05161e-06
32 *601:A0 *598:S 1.3701e-05
33 *601:A0 *599:A 0
34 *601:A0 *746:A 0.000128668
35 *601:A0 *753:A 3.15739e-05
36 *601:A0 *778:A 0.000101474
37 *601:A0 *782:A 7.89362e-05
38 *610:B1 *580:C 5.49489e-05
39 *610:B1 *712:CLK 5.49489e-05
40 *643:B *610:A1 2.50137e-05
41 *643:B *611:A2 0.000139168
42 *643:B *643:A 0.000181496
43 *643:B *126:30 0
44 *643:B *204:12 4.13122e-06
45 *643:B *206:12 1.00399e-05
46 *82:8 *92:20 0.000353769
47 *82:14 *708:CLK 0.000126439
48 *82:14 *96:18 0.00014178
49 *82:14 *126:30 0
50 *82:18 *610:A1 4.13122e-06
51 *82:18 *610:A2 7.70035e-05
52 *82:18 *204:12 6.31564e-05
53 *82:46 *607:A0 5.50052e-05
54 *82:46 *608:A 0.000100165
55 *82:46 *96:18 0.000516186
56 *82:55 *607:A0 6.49987e-05
57 *82:83 *577:A 0
58 *82:83 *604:A1 0.000269422
59 *82:83 *699:D 8.00806e-05
60 *82:83 *708:CLK 4.49293e-05
61 *82:83 *144:35 0.00034485
62 *82:83 *144:39 0.00100144
63 *82:93 *672:A 0.000145212
64 *82:93 *144:39 0.000662718
65 *82:101 *593:A1 1.72165e-05
66 *82:101 *593:A4 5.37741e-06
67 *82:101 *672:A 5.65955e-05
68 *82:101 *127:30 0
69 *82:126 *593:A1 5.49489e-05
70 *82:126 *593:A4 1.8461e-05
71 *82:126 *593:B1 2.75938e-05
72 *82:126 *598:A1 0.000188586
73 *82:126 *598:S 0.000457296
74 *82:126 *672:A 7.09477e-05
75 *82:126 *753:A 0.000143625
76 *593:A2 *585:A3 7.14923e-05
77 *593:A2 *82:101 4.9906e-05
78 *691:SET_B *82:83 0
79 *699:RESET_B *82:14 0
80 *699:RESET_B *82:83 0
81 *708:RESET_B *589:A0 5.18233e-05
82 *713:D *82:126 9.61483e-05
83 *713:RESET_B *82:93 1.98839e-05
84 *3:21 *589:A0 0
85 *32:8 *82:83 5.52302e-05
86 *81:69 *585:A3 5.47001e-05
*RES
1 *577:X *82:8 17.2107 
2 *82:8 *82:14 9.625 
3 *82:14 *82:18 7.66071 
4 *82:18 *643:B 20.3893 
5 *82:18 *610:B1 14.3357 
6 *82:14 *82:46 10 
7 *82:46 *607:A1 9.3 
8 *82:46 *82:55 5.85714 
9 *82:55 *595:A0 20.1393 
10 *82:55 *589:A0 23.0321 
11 *82:8 *82:83 20.3393 
12 *82:83 *82:93 17.5714 
13 *82:93 *82:101 7.21429 
14 *82:101 *585:A3 16.8893 
15 *82:101 *82:126 16.7321 
16 *82:126 *601:A0 27.1036 
17 *82:126 *598:A0 9.3 
18 *82:93 *593:A3 9.3 
19 *82:83 *604:A0 9.3 
*END

*D_NET *83 0.000952108
*CONN
*I *581:A1 I *D sky130_fd_sc_hd__a21oi_1
*I *578:Y O *D sky130_fd_sc_hd__o21ai_1
*CAP
1 *581:A1 0.000266751
2 *578:Y 0.000266751
3 *581:A1 *603:A 0.000137102
4 *581:A1 *202:71 9.15842e-06
5 *81:31 *581:A1 0.000272344
*RES
1 *578:Y *581:A1 32.1357 
*END

*D_NET *84 0.00239087
*CONN
*I *606:B I *D sky130_fd_sc_hd__nor2_1
*I *581:A2 I *D sky130_fd_sc_hd__a21oi_1
*I *579:X O *D sky130_fd_sc_hd__or3_1
*CAP
1 *606:B 0.00030388
2 *581:A2 0.00040409
3 *579:X 0
4 *84:4 0.00070797
5 *581:A2 *591:A 9.67754e-05
6 *581:A2 *594:C 9.58632e-05
7 *581:A2 *597:C 2.59355e-05
8 *581:A2 *656:A 9.41642e-05
9 *581:A2 *85:49 9.58689e-05
10 *581:A2 *85:53 3.49456e-06
11 *581:A2 *90:20 6.92966e-06
12 *581:A2 *91:27 4.88537e-05
13 *581:A2 *94:6 2.85321e-05
14 *581:A2 *96:18 3.54697e-06
15 *581:A2 *201:68 5.16995e-05
16 *606:B *586:A 0.000162366
17 *606:B *85:16 1.87331e-05
18 *606:B *85:49 0.000187173
19 *700:RESET_B *581:A2 5.49995e-05
*RES
1 *579:X *84:4 9.3 
2 *84:4 *581:A2 25.9429 
3 *84:4 *606:B 15.2107 
*END

*D_NET *85 0.00780374
*CONN
*I *603:D I *D sky130_fd_sc_hd__or4_1
*I *581:B1 I *D sky130_fd_sc_hd__a21oi_1
*I *600:D I *D sky130_fd_sc_hd__or4_1
*I *584:A1 I *D sky130_fd_sc_hd__o21a_1
*I *597:D I *D sky130_fd_sc_hd__or4_1
*I *606:A I *D sky130_fd_sc_hd__nor2_1
*I *580:X O *D sky130_fd_sc_hd__or3_2
*CAP
1 *603:D 0.00019117
2 *581:B1 0
3 *600:D 0
4 *584:A1 0.000164279
5 *597:D 3.68998e-05
6 *606:A 0
7 *580:X 0.000424802
8 *85:70 0.000491304
9 *85:55 0.000445477
10 *85:53 0.000139686
11 *85:49 0.000876467
12 *85:16 0.00105197
13 *584:A1 *584:A2 6.05161e-06
14 *584:A1 *600:A 0.000141729
15 *584:A1 *601:S 6.51675e-05
16 *597:D *597:C 2.59355e-05
17 *603:D *592:B1 9.25014e-06
18 *603:D *603:A 0.000264531
19 *603:D *166:14 0
20 *85:16 *607:S 0.000528302
21 *85:16 *609:A 2.09722e-05
22 *85:16 *610:A2 2.16315e-05
23 *85:16 *655:A 0.000504543
24 *85:16 *712:CLK 7.62237e-05
25 *85:49 *576:A 5.49995e-05
26 *85:49 *579:A 1.35465e-05
27 *85:49 *586:A 0.000234621
28 *85:49 *597:C 2.19818e-05
29 *85:49 *607:S 1.61129e-05
30 *85:49 *655:A 8.18077e-05
31 *85:49 *94:23 0.000151195
32 *85:49 *126:26 0.000253476
33 *85:49 *139:10 0.000147084
34 *85:49 *201:91 0.00022954
35 *85:53 *597:C 1.62025e-05
36 *85:55 *597:C 9.40308e-05
37 *85:70 *578:A1 9.58632e-05
38 *85:70 *600:A 1.24368e-05
39 *85:70 *619:A 0.000140243
40 *85:70 *166:14 0.000258063
41 *85:70 *202:45 1.38323e-05
42 *85:70 *202:60 1.52217e-05
43 *579:C *85:49 9.84729e-05
44 *581:A2 *85:49 9.58689e-05
45 *581:A2 *85:53 3.49456e-06
46 *606:B *85:16 1.87331e-05
47 *606:B *85:49 0.000187173
48 *700:RESET_B *85:49 4.27935e-05
49 *81:8 *85:49 2.05612e-05
*RES
1 *580:X *85:16 28.9071 
2 *85:16 *606:A 9.3 
3 *85:16 *85:49 26.1607 
4 *85:49 *85:53 0.964286 
5 *85:53 *85:55 1.76786 
6 *85:55 *597:D 9.83571 
7 *85:55 *85:70 15.4643 
8 *85:70 *584:A1 12.4429 
9 *85:70 *600:D 9.3 
10 *85:53 *581:B1 9.3 
11 *85:49 *603:D 22.675 
*END

*D_NET *86 0.00240735
*CONN
*I *593:A4 I *D sky130_fd_sc_hd__a41o_1
*I *585:A4 I *D sky130_fd_sc_hd__a41o_1
*I *581:Y O *D sky130_fd_sc_hd__a21oi_1
*CAP
1 *593:A4 0.000130398
2 *585:A4 2.26156e-05
3 *581:Y 0.000287735
4 *86:10 0.000440749
5 *585:A4 *700:CLK 9.66977e-05
6 *593:A4 *592:A1 1.13127e-05
7 *593:A4 *593:A1 0.000145484
8 *593:A4 *593:B1 2.84026e-05
9 *86:10 *593:A1 0.000212448
10 *86:10 *597:A 2.59355e-05
11 *86:10 *597:C 0.000268835
12 *86:10 *746:A 6.05161e-06
13 *86:10 *90:20 0.000226272
14 *86:10 *90:24 0.000262834
15 *86:10 *127:30 3.2687e-05
16 *585:A3 *593:A4 6.52632e-05
17 *585:A3 *86:10 2.30913e-05
18 *81:69 *585:A4 9.66977e-05
19 *82:101 *593:A4 5.37741e-06
20 *82:126 *593:A4 1.8461e-05
*RES
1 *581:Y *86:10 21.7107 
2 *86:10 *585:A4 14.7464 
3 *86:10 *593:A4 17.1393 
*END

*D_NET *87 0.00578303
*CONN
*I *615:A I *D sky130_fd_sc_hd__nor2_1
*I *636:A3 I *D sky130_fd_sc_hd__a32o_1
*I *613:A2 I *D sky130_fd_sc_hd__a22o_1
*I *583:B I *D sky130_fd_sc_hd__nand2_1
*I *582:X O *D sky130_fd_sc_hd__and2_1
*CAP
1 *615:A 0.000111258
2 *636:A3 0.000175183
3 *613:A2 0.00037883
4 *583:B 0.000280853
5 *582:X 0
6 *87:16 0.00081165
7 *87:12 0.00069969
8 *87:4 0.000483799
9 *583:B *616:B1_N 0.000225529
10 *583:B *633:A1 7.83587e-05
11 *583:B *107:10 1.08359e-05
12 *583:B *202:12 5.80706e-06
13 *583:B *202:21 0.000198738
14 *583:B *202:34 5.1002e-05
15 *613:A2 *613:A1 0.000456854
16 *613:A2 *619:A 9.15842e-06
17 *613:A2 *107:10 2.15505e-05
18 *615:A *615:B 5.50052e-05
19 *615:A *727:A 4.77002e-05
20 *636:A3 *612:B_N 7.32955e-05
21 *636:A3 *636:A1 0.000205412
22 *636:A3 *636:A2 0.000233729
23 *636:A3 *205:66 8.57023e-05
24 *87:12 *582:A 5.23822e-05
25 *87:12 *612:A 0
26 *87:12 *612:B_N 2.19818e-05
27 *87:12 *615:B 1.47872e-05
28 *87:12 *727:A 1.85914e-05
29 *87:12 *201:29 6.33112e-05
30 *87:16 *612:A 0.000227532
31 *87:16 *613:A1 0.00026353
32 *87:16 *613:B1 9.71197e-05
33 *87:16 *618:A1 5.97398e-05
34 *87:16 *205:66 5.71472e-05
35 *618:S *583:B 9.25014e-06
36 *618:S *613:A2 4.47792e-05
37 *702:D *613:A2 9.33978e-07
38 *730:A *87:12 9.67754e-05
39 *738:A *636:A3 5.52302e-05
*RES
1 *582:X *87:4 9.3 
2 *87:4 *87:12 14.4643 
3 *87:12 *87:16 9.14286 
4 *87:16 *583:B 21.8714 
5 *87:16 *613:A2 19.8 
6 *87:12 *636:A3 15.1929 
7 *87:4 *615:A 11.8179 
*END

*D_NET *88 0.00351438
*CONN
*I *616:A2 I *D sky130_fd_sc_hd__a21boi_1
*I *584:A2 I *D sky130_fd_sc_hd__o21a_1
*I *633:A2 I *D sky130_fd_sc_hd__a21o_1
*I *583:Y O *D sky130_fd_sc_hd__nand2_1
*CAP
1 *616:A2 7.47495e-05
2 *584:A2 0.000534761
3 *633:A2 0.000230368
4 *583:Y 0
5 *88:10 0.0011011
6 *88:4 0.000410719
7 *584:A2 *585:B1 0.000102507
8 *584:A2 *601:S 1.21258e-05
9 *584:A2 *707:D 0.000101158
10 *633:A2 *707:D 0.000134447
11 *633:A2 *159:28 2.60984e-05
12 *88:10 *692:D 3.63281e-05
13 *88:10 *702:CLK 9.99853e-05
14 *88:10 *202:12 0.000146724
15 *584:A1 *584:A2 6.05161e-06
16 *702:D *584:A2 0.000137939
17 *702:D *633:A2 1.07652e-05
18 *702:D *88:10 0.000348554
*RES
1 *583:Y *88:4 9.3 
2 *88:4 *88:10 12.4821 
3 *88:10 *633:A2 26.3357 
4 *88:10 *584:A2 22.3536 
5 *88:4 *616:A2 10.675 
*END

*D_NET *89 0.00146364
*CONN
*I *585:B1 I *D sky130_fd_sc_hd__a41o_1
*I *584:X O *D sky130_fd_sc_hd__o21a_1
*CAP
1 *585:B1 0.000472918
2 *584:X 0.000472918
3 *585:B1 *584:B1 7.89362e-05
4 *585:B1 *598:S 7.58841e-05
5 *585:B1 *601:S 0.000185197
6 *585:B1 *700:CLK 1.84776e-05
7 *585:B1 *127:30 3.6337e-05
8 *584:A2 *585:B1 0.000102507
9 *585:A2 *585:B1 1.19813e-05
10 *593:A2 *585:B1 8.48678e-06
*RES
1 *584:X *585:B1 35.6179 
*END

*D_NET *90 0.00584558
*CONN
*I *588:A I *D sky130_fd_sc_hd__or3_1
*I *597:B I *D sky130_fd_sc_hd__or4_1
*I *593:A1 I *D sky130_fd_sc_hd__a41o_1
*I *600:B I *D sky130_fd_sc_hd__or4_1
*I *586:Y O *D sky130_fd_sc_hd__inv_2
*CAP
1 *588:A 0
2 *597:B 0
3 *593:A1 0.000316708
4 *600:B 4.601e-05
5 *586:Y 0.000197558
6 *90:24 0.000560152
7 *90:20 0.000843394
8 *90:12 0.000843517
9 *593:A1 *593:B1 9.74665e-05
10 *593:A1 *127:30 0.000120128
11 *90:12 *656:A 4.59075e-05
12 *90:12 *91:27 0.000228558
13 *90:12 *92:20 0.000271345
14 *90:12 *126:18 4.49293e-05
15 *90:12 *126:26 7.83587e-05
16 *90:20 *579:A 3.11713e-05
17 *90:20 *591:A 1.21258e-05
18 *90:20 *597:C 8.74791e-05
19 *90:20 *656:A 0.000310308
20 *90:20 *91:27 0
21 *90:20 *94:6 2.38501e-05
22 *90:20 *139:10 0
23 *90:20 *201:68 4.37451e-05
24 *581:A2 *90:20 6.92966e-06
25 *588:B *90:20 0.000194652
26 *593:A4 *593:A1 0.000145484
27 *594:B *90:20 5.33005e-05
28 *618:S *600:B 1.00887e-05
29 *81:10 *90:20 0.000166973
30 *81:12 *90:20 3.14003e-05
31 *81:69 *593:A1 0.000193004
32 *81:69 *600:B 6.73181e-05
33 *82:101 *593:A1 1.72165e-05
34 *82:126 *593:A1 5.49489e-05
35 *86:10 *593:A1 0.000212448
36 *86:10 *90:20 0.000226272
37 *86:10 *90:24 0.000262834
*RES
1 *586:Y *90:12 23.7643 
2 *90:12 *90:20 20.875 
3 *90:20 *90:24 7.08929 
4 *90:24 *600:B 14.8357 
5 *90:24 *593:A1 21.2821 
6 *90:20 *597:B 9.3 
7 *90:12 *588:A 9.3 
*END

*D_NET *91 0.0043526
*CONN
*I *592:A3 I *D sky130_fd_sc_hd__o31a_1
*I *588:C I *D sky130_fd_sc_hd__or3_1
*I *594:C I *D sky130_fd_sc_hd__or3_1
*I *587:X O *D sky130_fd_sc_hd__or4b_1
*CAP
1 *592:A3 0.000380853
2 *588:C 0
3 *594:C 5.38239e-05
4 *587:X 0.000490931
5 *91:27 0.000796676
6 *91:10 0.000960579
7 *592:A3 *592:A1 5.7661e-06
8 *592:A3 *592:A2 5.8148e-05
9 *592:A3 *592:B1 0.000228558
10 *592:A3 *603:A 9.90431e-05
11 *592:A3 *604:S 5.52302e-05
12 *592:A3 *672:A 0
13 *594:C *201:68 5.49995e-05
14 *91:10 *579:A 3.34634e-05
15 *91:10 *587:D_N 7.34285e-06
16 *91:10 *201:72 9.15842e-06
17 *91:10 *202:79 2.53112e-06
18 *91:27 *126:26 0
19 *91:27 *139:10 0
20 *91:27 *198:12 0
21 *91:27 *201:72 0.000135573
22 *91:27 *201:89 0.000125595
23 *581:A2 *594:C 9.58632e-05
24 *581:A2 *91:27 4.88537e-05
25 *611:B1 *91:10 0.000185403
26 *730:A *91:10 3.11088e-05
27 *24:6 *91:10 0.000264546
28 *90:12 *91:27 0.000228558
29 *90:20 *91:27 0
*RES
1 *587:X *91:10 20.9071 
2 *91:10 *594:C 15.175 
3 *91:10 *91:27 12.375 
4 *91:27 *588:C 9.3 
5 *91:27 *592:A3 16.4429 
*END

*D_NET *92 0.00484354
*CONN
*I *589:S I *D sky130_fd_sc_hd__mux2_1
*I *588:X O *D sky130_fd_sc_hd__or3_1
*CAP
1 *589:S 0
2 *588:X 0.00134791
3 *92:20 0.00134791
4 *92:20 *589:A1 4.87854e-05
5 *92:20 *637:B 1.32552e-05
6 *92:20 *656:A 0.000312209
7 *92:20 *665:A 0.000169383
8 *92:20 *669:A 6.42242e-05
9 *92:20 *699:D 3.08664e-05
10 *92:20 *775:A 0
11 *92:20 *142:62 0.000355357
12 *92:20 *144:18 7.4826e-05
13 *92:20 *156:8 3.67257e-05
14 *589:A0 *92:20 0.000340781
15 *708:RESET_B *92:20 7.61932e-05
16 *82:8 *92:20 0.000353769
17 *90:12 *92:20 0.000271345
*RES
1 *588:X *92:20 47.2107 
2 *92:20 *589:S 9.3 
*END

*D_NET *93 0.000545449
*CONN
*I *590:A I *D sky130_fd_sc_hd__clkbuf_1
*I *589:X O *D sky130_fd_sc_hd__mux2_1
*CAP
1 *590:A 0.000111166
2 *589:X 0.000111166
3 *590:A *669:A 9.25014e-06
4 *590:A *775:A 0
5 *590:A *144:18 0.000153054
6 *590:A *155:18 8.07313e-05
7 *714:D *590:A 8.00806e-05
*RES
1 *589:X *590:A 30.9036 
*END

*D_NET *94 0.0028243
*CONN
*I *603:C I *D sky130_fd_sc_hd__or4_1
*I *592:A2 I *D sky130_fd_sc_hd__o31a_1
*I *597:C I *D sky130_fd_sc_hd__or4_1
*I *591:Y O *D sky130_fd_sc_hd__inv_2
*CAP
1 *603:C 0
2 *592:A2 8.88813e-05
3 *597:C 0.000123373
4 *591:Y 1.20148e-05
5 *94:23 0.000255013
6 *94:6 0.000301519
7 *592:A2 *592:A1 0.000442628
8 *592:A2 *592:B1 0.000230482
9 *592:A2 *603:A 5.52302e-05
10 *94:23 *592:A1 3.57366e-05
11 *94:23 *603:A 0.000304023
12 *94:23 *139:10 9.4908e-05
13 *94:23 *201:110 7.83659e-05
14 *581:A2 *597:C 2.59355e-05
15 *581:A2 *94:6 2.85321e-05
16 *592:A3 *592:A2 5.8148e-05
17 *597:D *597:C 2.59355e-05
18 *85:49 *597:C 2.19818e-05
19 *85:49 *94:23 0.000151195
20 *85:53 *597:C 1.62025e-05
21 *85:55 *597:C 9.40308e-05
22 *86:10 *597:C 0.000268835
23 *90:20 *597:C 8.74791e-05
24 *90:20 *94:6 2.38501e-05
*RES
1 *591:Y *94:6 9.83571 
2 *94:6 *597:C 13.5321 
3 *94:6 *94:23 14.6429 
4 *94:23 *592:A2 13.5321 
5 *94:23 *603:C 9.3 
*END

*D_NET *95 0.000565951
*CONN
*I *593:B1 I *D sky130_fd_sc_hd__a41o_1
*I *592:X O *D sky130_fd_sc_hd__o31a_1
*CAP
1 *593:B1 7.12019e-05
2 *592:X 7.12019e-05
3 *593:B1 *672:A 0.000270085
4 *593:A1 *593:B1 9.74665e-05
5 *593:A4 *593:B1 2.84026e-05
6 *82:126 *593:B1 2.75938e-05
*RES
1 *592:X *593:B1 21.1893 
*END

*D_NET *96 0.00411344
*CONN
*I *595:S I *D sky130_fd_sc_hd__mux2_1
*I *594:X O *D sky130_fd_sc_hd__or3_1
*CAP
1 *595:S 0
2 *594:X 0.00145481
3 *96:18 0.00145481
4 *96:18 *595:A1 5.66971e-05
5 *96:18 *596:A 0.000112422
6 *96:18 *610:A2 9.22507e-05
7 *96:18 *691:CLK 0.000169102
8 *96:18 *731:A 9.56283e-05
9 *581:A2 *96:18 3.54697e-06
10 *595:A0 *96:18 1.62025e-05
11 *82:14 *96:18 0.00014178
12 *82:46 *96:18 0.000516186
*RES
1 *594:X *96:18 44.3 
2 *96:18 *595:S 9.3 
*END

*D_NET *97 0.000536179
*CONN
*I *596:A I *D sky130_fd_sc_hd__clkbuf_1
*I *595:X O *D sky130_fd_sc_hd__mux2_1
*CAP
1 *596:A 0.000211878
2 *595:X 0.000211878
3 *96:18 *596:A 0.000112422
*RES
1 *595:X *596:A 31.0107 
*END

*D_NET *98 0.00311266
*CONN
*I *598:S I *D sky130_fd_sc_hd__mux2_1
*I *597:X O *D sky130_fd_sc_hd__or4_1
*CAP
1 *598:S 0.000728767
2 *597:X 0.000728767
3 *598:S *585:A1 8.05191e-05
4 *598:S *598:A1 2.28499e-05
5 *598:S *753:A 0.000316184
6 *598:S *127:30 0.000316791
7 *585:A3 *598:S 1.69252e-05
8 *585:B1 *598:S 7.58841e-05
9 *593:A2 *598:S 0.000169707
10 *601:A0 *598:S 1.3701e-05
11 *715:RESET_B *598:S 0.00018527
12 *82:126 *598:S 0.000457296
*RES
1 *597:X *598:S 42.725 
*END

*D_NET *99 0.000538801
*CONN
*I *599:A I *D sky130_fd_sc_hd__clkbuf_1
*I *598:X O *D sky130_fd_sc_hd__mux2_1
*CAP
1 *599:A 0.0002694
2 *598:X 0.0002694
3 *601:A0 *599:A 0
*RES
1 *598:X *599:A 32.3321 
*END

*D_NET *100 0.00134658
*CONN
*I *601:S I *D sky130_fd_sc_hd__mux2_1
*I *600:X O *D sky130_fd_sc_hd__or4_1
*CAP
1 *601:S 0.000457911
2 *600:X 0.000457911
3 *601:S *584:B1 5.66472e-05
4 *601:S *601:A1 0.000111616
5 *584:A1 *601:S 6.51675e-05
6 *584:A2 *601:S 1.21258e-05
7 *585:B1 *601:S 0.000185197
*RES
1 *600:X *601:S 27.8143 
*END

*D_NET *101 0.000321175
*CONN
*I *602:A I *D sky130_fd_sc_hd__clkbuf_1
*I *601:X O *D sky130_fd_sc_hd__mux2_1
*CAP
1 *602:A 0.000148167
2 *601:X 0.000148167
3 *602:A *782:A 2.48421e-05
*RES
1 *601:X *602:A 30.3143 
*END

*D_NET *102 0.000473136
*CONN
*I *604:S I *D sky130_fd_sc_hd__mux2_1
*I *603:X O *D sky130_fd_sc_hd__or4_1
*CAP
1 *604:S 0.000136073
2 *603:X 0.000136073
3 *604:S *604:A1 0
4 *604:S *139:10 0.00014576
5 *592:A3 *604:S 5.52302e-05
*RES
1 *603:X *604:S 30.0821 
*END

*D_NET *103 0.00108621
*CONN
*I *605:A I *D sky130_fd_sc_hd__clkbuf_1
*I *604:X O *D sky130_fd_sc_hd__mux2_1
*CAP
1 *605:A 0.000324507
2 *604:X 0.000324507
3 *605:A *127:96 0.00015234
4 *605:A *129:10 0.000175526
5 *605:A *129:40 3.34295e-05
6 *605:A *139:10 0
7 *605:A *139:26 0
8 *605:A *144:39 2.27416e-05
9 *605:A *166:14 0
10 *709:RESET_B *605:A 5.31541e-05
*RES
1 *604:X *605:A 34.9393 
*END

*D_NET *104 0.00323878
*CONN
*I *607:S I *D sky130_fd_sc_hd__mux2_1
*I *606:Y O *D sky130_fd_sc_hd__nor2_1
*CAP
1 *607:S 0.00108861
2 *606:Y 0.00108861
3 *607:S *655:A 2.04065e-05
4 *607:S *708:CLK 0.000163434
5 *607:S *784:A 0.000142985
6 *589:A0 *607:S 6.67257e-05
7 *595:A0 *607:S 7.95286e-05
8 *3:21 *607:S 4.40724e-05
9 *85:16 *607:S 0.000528302
10 *85:49 *607:S 1.61129e-05
*RES
1 *606:Y *607:S 43.6357 
*END

*D_NET *105 0.000815839
*CONN
*I *608:A I *D sky130_fd_sc_hd__clkbuf_1
*I *607:X O *D sky130_fd_sc_hd__mux2_1
*CAP
1 *608:A 0.000250612
2 *607:X 0.000250612
3 *608:A *784:A 0
4 *708:D *608:A 3.92854e-05
5 *3:21 *608:A 0.000175164
6 *82:46 *608:A 0.000100165
*RES
1 *607:X *608:A 32.9214 
*END

*D_NET *106 0.00326675
*CONN
*I *611:A2 I *D sky130_fd_sc_hd__o22a_1
*I *643:A I *D sky130_fd_sc_hd__nor2_1
*I *609:Y O *D sky130_fd_sc_hd__inv_2
*CAP
1 *611:A2 0.000399156
2 *643:A 0.000180421
3 *609:Y 0.000166499
4 *106:8 0.000746076
5 *611:A2 *587:C 9.83388e-05
6 *611:A2 *587:D_N 0.000558257
7 *611:A2 *712:CLK 1.51571e-05
8 *611:A2 *207:34 0.00034718
9 *611:A2 *207:49 5.19439e-05
10 *643:A *206:16 0
11 *106:8 *580:A 0.000302986
12 *106:8 *207:49 5.33005e-05
13 *611:B1 *611:A2 2.67685e-05
14 *643:B *611:A2 0.000139168
15 *643:B *643:A 0.000181496
*RES
1 *609:Y *106:8 17.6214 
2 *106:8 *643:A 17.55 
3 *106:8 *611:A2 23.3179 
*END

*D_NET *107 0.00300503
*CONN
*I *613:B1 I *D sky130_fd_sc_hd__a22o_1
*I *616:B1_N I *D sky130_fd_sc_hd__a21boi_1
*I *612:X O *D sky130_fd_sc_hd__or2b_1
*CAP
1 *613:B1 0.000142366
2 *616:B1_N 0.000282817
3 *612:X 0.000111772
4 *107:10 0.000536955
5 *613:B1 *613:A1 0.000232619
6 *613:B1 *613:B2 9.42108e-05
7 *613:B1 *618:A1 0.00018372
8 *616:B1_N *616:A1 1.98839e-05
9 *616:B1_N *110:12 9.90431e-05
10 *616:B1_N *166:14 0.000575165
11 *616:B1_N *202:12 0
12 *107:10 *619:A 7.58841e-05
13 *107:10 *166:14 0.00014322
14 *583:B *616:B1_N 0.000225529
15 *583:B *107:10 1.08359e-05
16 *613:A2 *107:10 2.15505e-05
17 *618:S *613:B1 9.90431e-05
18 *730:A *107:10 5.33005e-05
19 *87:16 *613:B1 9.71197e-05
*RES
1 *612:X *107:10 16.2821 
2 *107:10 *616:B1_N 22.5679 
3 *107:10 *613:B1 19.0143 
*END

*D_NET *108 0.00132947
*CONN
*I *615:B I *D sky130_fd_sc_hd__nor2_1
*I *614:Y O *D sky130_fd_sc_hd__nor2_1
*CAP
1 *615:B 0.000342344
2 *614:Y 0.000342344
3 *615:B *636:A1 0.000120368
4 *615:B *727:A 9.58689e-05
5 *615:B *201:50 0.000180195
6 *582:B *615:B 0.000121891
7 *615:A *615:B 5.50052e-05
8 *730:A *615:B 5.66708e-05
9 *87:12 *615:B 1.47872e-05
*RES
1 *614:Y *615:B 33.6 
*END

*D_NET *109 0.00144164
*CONN
*I *617:A2 I *D sky130_fd_sc_hd__a22o_1
*I *615:Y O *D sky130_fd_sc_hd__nor2_1
*CAP
1 *617:A2 0.000540658
2 *615:Y 0.000540658
3 *617:A2 *617:B2 5.52238e-05
4 *617:A2 *636:A1 9.82903e-05
5 *617:A2 *694:CLK 1.55953e-05
6 *617:A2 *694:D 0.00018372
7 *617:A2 *159:28 7.49387e-06
8 *617:A2 *201:29 0
9 *617:A2 *207:27 0
*RES
1 *615:Y *617:A2 35.7429 
*END

*D_NET *110 0.00290309
*CONN
*I *618:A1 I *D sky130_fd_sc_hd__mux2_1
*I *617:B1 I *D sky130_fd_sc_hd__a22o_1
*I *616:Y O *D sky130_fd_sc_hd__a21boi_1
*CAP
1 *618:A1 0.000223502
2 *617:B1 1.16062e-05
3 *616:Y 0.000300412
4 *110:12 0.00053552
5 *617:B1 *617:A1 5.52302e-05
6 *617:B1 *617:B2 5.52302e-05
7 *618:A1 *612:A 0.00018372
8 *618:A1 *617:A1 6.8646e-06
9 *618:A1 *201:29 0
10 *618:A1 *205:21 0.000115474
11 *618:A1 *205:23 0.000392026
12 *618:A1 *205:51 5.33005e-05
13 *110:12 *616:A1 0.000453359
14 *110:12 *201:12 0
15 *110:12 *205:21 0.000149911
16 *613:B1 *618:A1 0.00018372
17 *616:B1_N *110:12 9.90431e-05
18 *692:RESET_B *110:12 2.44318e-05
19 *701:D *110:12 0
20 *87:16 *618:A1 5.97398e-05
*RES
1 *616:Y *110:12 21.4964 
2 *110:12 *617:B1 14.3357 
3 *110:12 *618:A1 20.3893 
*END

*D_NET *111 0.00123837
*CONN
*I *619:A I *D sky130_fd_sc_hd__clkbuf_1
*I *618:X O *D sky130_fd_sc_hd__mux2_1
*CAP
1 *619:A 0.00026262
2 *618:X 0.00026262
3 *619:A *613:A1 9.60875e-05
4 *619:A *166:14 0.000112945
5 *619:A *202:45 5.50052e-05
6 *619:A *202:60 8.52379e-05
7 *613:A2 *619:A 9.15842e-06
8 *618:S *619:A 0.000138565
9 *85:70 *619:A 0.000140243
10 *107:10 *619:A 7.58841e-05
*RES
1 *618:X *619:A 33.975 
*END

*D_NET *112 0.00266429
*CONN
*I *637:A I *D sky130_fd_sc_hd__nor2_1
*I *621:A2 I *D sky130_fd_sc_hd__a21o_1
*I *620:Y O *D sky130_fd_sc_hd__inv_2
*CAP
1 *637:A 0.000546241
2 *621:A2 7.50792e-05
3 *620:Y 6.05641e-05
4 *112:6 0.000681884
5 *621:A2 *620:A 0.000134789
6 *621:A2 *621:A1 0.000221802
7 *621:A2 *631:A 3.51393e-05
8 *637:A *589:A1 2.95726e-05
9 *637:A *637:B 0.000669864
10 *637:A *673:B 2.13481e-06
11 *637:A *144:18 0.000175354
12 *112:6 *620:A 3.18676e-05
*RES
1 *620:Y *112:6 10.2464 
2 *112:6 *621:A2 12.5321 
3 *112:6 *637:A 28.55 
*END

*D_NET *113 0.00384197
*CONN
*I *625:B1_N I *D sky130_fd_sc_hd__a21bo_1
*I *623:B1 I *D sky130_fd_sc_hd__a32o_1
*I *622:X O *D sky130_fd_sc_hd__or2b_1
*CAP
1 *625:B1_N 5.95139e-05
2 *623:B1 0.000992283
3 *622:X 0.000647029
4 *113:12 0.00169883
5 *623:B1 *685:A1 0.000102586
6 *623:B1 *745:A 4.75956e-06
7 *623:B1 *143:45 2.09897e-05
8 *623:B1 *208:52 1.21258e-05
9 *623:B1 *208:62 4.04388e-05
10 *623:B1 *209:27 3.47641e-06
11 *623:B1 *220:41 0.000226513
12 *625:B1_N *208:14 0
13 *625:B1_N *220:12 3.34295e-05
14 *625:B1_N *220:32 0
*RES
1 *622:X *113:12 18.9031 
2 *113:12 *623:B1 22.6951 
3 *113:12 *625:B1_N 18.0939 
*END

*D_NET *114 0.00268363
*CONN
*I *634:A2 I *D sky130_fd_sc_hd__a21o_1
*I *625:A2 I *D sky130_fd_sc_hd__a21bo_1
*I *624:Y O *D sky130_fd_sc_hd__nand3_1
*CAP
1 *634:A2 0.000687787
2 *625:A2 0.000128523
3 *624:Y 0.000101371
4 *114:6 0.000917681
5 *625:A2 *628:A2 5.49489e-05
6 *625:A2 *208:32 3.95095e-05
7 *625:A2 *220:32 6.79824e-05
8 *634:A2 *634:B1 0
9 *634:A2 *126:121 9.99644e-06
10 *634:A2 *208:20 0.00056244
11 *114:6 *624:B 6.05161e-06
12 *114:6 *126:121 8.57572e-06
13 *114:6 *208:20 9.87672e-05
*RES
1 *624:Y *114:6 10.6571 
2 *114:6 *625:A2 20.9071 
3 *114:6 *634:A2 27.8714 
*END

*D_NET *115 0.00313151
*CONN
*I *630:A2 I *D sky130_fd_sc_hd__a21oi_1
*I *627:A2 I *D sky130_fd_sc_hd__a21oi_1
*I *628:A1 I *D sky130_fd_sc_hd__a21oi_1
*I *625:X O *D sky130_fd_sc_hd__a21bo_1
*CAP
1 *630:A2 0.000297074
2 *627:A2 0.000290149
3 *628:A1 0.000108055
4 *625:X 0.000210396
5 *115:12 0.000722308
6 *115:8 0.000831573
7 *627:A2 *627:A1 5.52302e-05
8 *627:A2 *627:B1 3.57366e-05
9 *627:A2 *628:B1 0
10 *627:A2 *652:A 1.7859e-05
11 *627:A2 *208:10 3.34687e-05
12 *627:A2 *208:14 1.02504e-05
13 *628:A1 *627:B1 3.69697e-05
14 *628:A1 *628:A2 1.02504e-05
15 *628:A1 *630:B1 1.07319e-05
16 *630:A2 *630:A1 3.6337e-05
17 *630:A2 *630:B1 5.52238e-05
18 *630:A2 *683:A1 1.92789e-05
19 *630:A2 *695:D 0.000122438
20 *630:A2 *745:A 0
21 *115:8 *630:B1 0
22 *115:8 *745:A 0
23 *695:RESET_B *627:A2 0.000169014
24 *695:RESET_B *628:A1 3.93893e-05
25 *696:D *627:A2 0
26 *696:RESET_B *627:A2 1.97756e-05
*RES
1 *625:X *115:8 17.2643 
2 *115:8 *115:12 7.91071 
3 *115:12 *628:A1 20.4786 
4 *115:12 *627:A2 23.3179 
5 *115:8 *630:A2 19.925 
*END

*D_NET *116 0.00110463
*CONN
*I *628:A2 I *D sky130_fd_sc_hd__a21oi_1
*I *626:X O *D sky130_fd_sc_hd__a21bo_1
*CAP
1 *628:A2 0.000404303
2 *626:X 0.000404303
3 *628:A2 *630:B1 8.13614e-05
4 *628:A2 *696:CLK 8.07951e-05
5 *628:A2 *208:32 5.75048e-06
6 *628:A2 *220:14 4.7812e-05
7 *628:A2 *220:32 1.51029e-05
8 *625:A2 *628:A2 5.49489e-05
9 *628:A1 *628:A2 1.02504e-05
10 *695:RESET_B *628:A2 0
*RES
1 *626:X *628:A2 33.9214 
*END

*D_NET *117 0.000192587
*CONN
*I *628:B1 I *D sky130_fd_sc_hd__a21oi_1
*I *627:Y O *D sky130_fd_sc_hd__a21oi_1
*CAP
1 *628:B1 3.75335e-05
2 *627:Y 3.75335e-05
3 *628:B1 *627:B1 1.92789e-05
4 *628:B1 *652:A 1.3701e-05
5 *627:A2 *628:B1 0
6 *696:D *628:B1 6.30744e-05
7 *696:RESET_B *628:B1 2.14658e-05
*RES
1 *627:Y *628:B1 19.9929 
*END

*D_NET *118 0.00229353
*CONN
*I *630:B1 I *D sky130_fd_sc_hd__a21oi_1
*I *629:Y O *D sky130_fd_sc_hd__nor2_1
*CAP
1 *630:B1 0.000796604
2 *629:Y 0.000796604
3 *630:B1 *627:B1 0.000266585
4 *630:B1 *683:A1 9.80028e-05
5 *630:B1 *696:CLK 7.70035e-05
6 *630:B1 *208:14 0
7 *630:B1 *220:14 9.58126e-05
8 *630:B1 *220:81 1.56e-05
9 *628:A1 *630:B1 1.07319e-05
10 *628:A2 *630:B1 8.13614e-05
11 *630:A2 *630:B1 5.52238e-05
12 *115:8 *630:B1 0
*RES
1 *629:Y *630:B1 42.5464 
*END

*D_NET *119 0.00267337
*CONN
*I *637:B I *D sky130_fd_sc_hd__nor2_1
*I *632:A2 I *D sky130_fd_sc_hd__a21o_1
*I *631:Y O *D sky130_fd_sc_hd__inv_2
*CAP
1 *637:B 0.000371567
2 *632:A2 0.000271913
3 *631:Y 0
4 *119:4 0.000643481
5 *632:A2 *620:A 0
6 *632:A2 *621:B1 0
7 *632:A2 *665:A 0.000376949
8 *632:A2 *673:A 7.41433e-05
9 *632:A2 *127:96 7.96557e-05
10 *632:A2 *127:102 9.90431e-05
11 *632:A2 *219:12 1.08359e-05
12 *637:B *589:A1 7.43578e-06
13 *637:B *631:A 5.52238e-05
14 *637:B *665:A 0
15 *637:B *714:CLK 0
16 *637:B *219:12 0
17 *637:A *637:B 0.000669864
18 *92:20 *637:B 1.32552e-05
*RES
1 *631:Y *119:4 9.3 
2 *119:4 *632:A2 24.925 
3 *119:4 *637:B 27.6214 
*END

*D_NET *120 0.00210365
*CONN
*I *636:B1 I *D sky130_fd_sc_hd__a32o_1
*I *635:Y O *D sky130_fd_sc_hd__inv_2
*CAP
1 *636:B1 0.000333107
2 *635:Y 0.000333107
3 *636:B1 *612:B_N 1.98828e-05
4 *636:B1 *636:A1 0
5 *636:B1 *636:B2 3.18676e-05
6 *636:B1 *142:12 7.55553e-05
7 *636:B1 *142:32 0.000132727
8 *636:B1 *142:43 7.66139e-05
9 *636:B1 *142:62 7.36697e-05
10 *636:B1 *159:28 0.000251362
11 *636:B1 *198:12 0.000707
12 *636:B1 *207:14 6.87574e-05
*RES
1 *635:Y *636:B1 39.6446 
*END

*D_NET *121 0.00138788
*CONN
*I *639:B I *D sky130_fd_sc_hd__or2_1
*I *638:X O *D sky130_fd_sc_hd__mux4_1
*CAP
1 *639:B 0.000515803
2 *638:X 0.000515803
3 *639:B *638:A2 2.48421e-05
4 *639:B *647:A 0.00033143
*RES
1 *638:X *639:B 38.1357 
*END

*D_NET *122 0.00106351
*CONN
*I *642:A2 I *D sky130_fd_sc_hd__a311o_1
*I *639:X O *D sky130_fd_sc_hd__or2_1
*CAP
1 *642:A2 0.000164918
2 *639:X 0.000164918
3 *642:A2 *642:A1 0.00036769
4 *642:A2 *126:16 0.000365982
*RES
1 *639:X *642:A2 33.225 
*END

*D_NET *123 0.00311635
*CONN
*I *641:A I *D sky130_fd_sc_hd__or2b_1
*I *640:X O *D sky130_fd_sc_hd__mux4_1
*CAP
1 *641:A 0.00117394
2 *640:X 0.00117394
3 *641:A *638:A2 3.34295e-05
4 *641:A *640:A1 0
5 *641:A *640:A2 0.000127339
6 *641:A *640:S0 0.000129944
7 *641:A *640:S1 1.40961e-05
8 *641:A *685:A0 7.03103e-05
9 *641:A *732:A 0.000100625
10 *641:A *129:55 0
11 *641:A *151:10 8.54375e-05
12 *641:A *208:62 0.000103974
13 *641:A *209:87 4.61529e-05
14 *641:A *210:18 5.71472e-05
*RES
1 *640:X *641:A 46.5107 
*END

*D_NET *124 0.00127951
*CONN
*I *642:A3 I *D sky130_fd_sc_hd__a311o_1
*I *641:X O *D sky130_fd_sc_hd__or2b_1
*CAP
1 *642:A3 0.000402563
2 *641:X 0.000402563
3 *642:A3 *639:A 0.000150043
4 *642:A3 *698:D 7.61932e-05
5 *642:A3 *728:A 0
6 *642:A3 *776:A 0.000199362
7 *642:A3 *126:8 4.87841e-05
8 *642:A3 *139:26 0
*RES
1 *641:X *642:A3 36.5821 
*END

*D_NET *125 0.000476079
*CONN
*I *645:A I *D sky130_fd_sc_hd__clkbuf_1
*I *644:X O *D sky130_fd_sc_hd__and4_1
*CAP
1 *645:A 0.000178705
2 *644:X 0.000178705
3 *645:A *143:45 7.89362e-05
4 *645:A *198:12 3.9733e-05
*RES
1 *644:X *645:A 31.0286 
*END

*D_NET *126 0.0187041
*CONN
*I *653:A I *D sky130_fd_sc_hd__inv_2
*I *652:A I *D sky130_fd_sc_hd__inv_2
*I *651:A I *D sky130_fd_sc_hd__inv_2
*I *654:A I *D sky130_fd_sc_hd__inv_2
*I *656:A I *D sky130_fd_sc_hd__inv_2
*I *655:A I *D sky130_fd_sc_hd__inv_2
*I *649:A I *D sky130_fd_sc_hd__inv_2
*I *650:A I *D sky130_fd_sc_hd__inv_2
*I *657:A I *D sky130_fd_sc_hd__inv_2
*I *648:A I *D sky130_fd_sc_hd__inv_2
*I *647:X O *D sky130_fd_sc_hd__buf_4
*CAP
1 *653:A 0.000543359
2 *652:A 0.000137795
3 *651:A 7.38738e-05
4 *654:A 0
5 *656:A 0.000459521
6 *655:A 0.000248858
7 *649:A 0.000592693
8 *650:A 0
9 *657:A 0
10 *648:A 0.000288358
11 *647:X 0.000125534
12 *126:121 0.00103518
13 *126:56 0.000702323
14 *126:38 0.000807743
15 *126:30 0.00126285
16 *126:26 0.00128369
17 *126:18 0.00128371
18 *126:16 0.000829869
19 *126:12 0.00140831
20 *126:8 0.000847014
21 *651:A *629:A 4.50908e-05
22 *651:A *220:81 1.21258e-05
23 *652:A *208:14 0.000139158
24 *653:A *640:A0 0
25 *653:A *683:A0 0.000112418
26 *653:A *683:A1 4.88637e-05
27 *653:A *776:A 0
28 *653:A *129:59 0
29 *653:A *210:10 0.000104978
30 *653:A *210:14 0.000105582
31 *655:A *708:CLK 0.000397596
32 *656:A *579:A 0.00012249
33 *656:A *201:68 9.58689e-05
34 *656:A *201:89 3.85988e-05
35 *126:8 *639:A 0
36 *126:12 *210:18 0.000184745
37 *126:12 *210:33 0.000169359
38 *126:16 *604:A1 0
39 *126:16 *642:A1 9.87576e-05
40 *126:16 *776:A 0.000293718
41 *126:16 *198:12 0
42 *126:18 *604:A1 0
43 *126:18 *674:A 5.33882e-05
44 *126:18 *198:12 0
45 *126:26 *198:12 0
46 *126:30 *708:CLK 0
47 *126:30 *142:12 5.58053e-05
48 *126:30 *142:32 0.000133922
49 *126:30 *142:43 8.0025e-05
50 *126:30 *142:62 2.4741e-05
51 *126:30 *198:12 0
52 *126:30 *206:12 0
53 *126:30 *206:37 0.000377717
54 *126:30 *207:14 0.00027338
55 *126:38 *198:12 0
56 *126:56 *201:12 0
57 *126:121 *624:A 0.000494556
58 *126:121 *624:B 3.08664e-05
59 *126:121 *208:14 3.23542e-05
60 *126:121 *208:20 0.000398313
61 *126:121 *210:33 1.24368e-05
62 *126:121 *220:12 0
63 *581:A2 *656:A 9.41642e-05
64 *607:S *655:A 2.04065e-05
65 *627:A2 *652:A 1.7859e-05
66 *628:B1 *652:A 1.3701e-05
67 *634:A2 *126:121 9.99644e-06
68 *642:A2 *126:16 0.000365982
69 *642:A3 *126:8 4.87841e-05
70 *643:B *126:30 0
71 *691:SET_B *126:30 0.000220473
72 *693:RESET_B *649:A 5.71472e-05
73 *694:RESET_B *126:30 2.05938e-05
74 *694:RESET_B *126:56 3.57488e-05
75 *696:RESET_B *652:A 2.89114e-05
76 *697:RESET_B *653:A 0.000104974
77 *698:SET_B *126:16 9.14786e-05
78 *701:RESET_B *648:A 3.18676e-05
79 *701:RESET_B *126:38 7.43578e-06
80 *3:21 *126:18 2.69614e-05
81 *82:14 *126:30 0
82 *85:16 *655:A 0.000504543
83 *85:49 *655:A 8.18077e-05
84 *85:49 *126:26 0.000253476
85 *90:12 *656:A 4.59075e-05
86 *90:12 *126:18 4.49293e-05
87 *90:12 *126:26 7.83587e-05
88 *90:20 *656:A 0.000310308
89 *91:27 *126:26 0
90 *92:20 *656:A 0.000312209
91 *114:6 *126:121 8.57572e-06
*RES
1 *647:X *126:8 16.05 
2 *126:8 *126:12 7.91071 
3 *126:12 *126:16 16.4643 
4 *126:16 *126:18 8.01786 
5 *126:18 *126:26 10.0893 
6 *126:26 *126:30 19.5 
7 *126:30 *126:38 12.9464 
8 *126:38 *648:A 14.3536 
9 *126:38 *657:A 9.3 
10 *126:30 *126:56 6.58929 
11 *126:56 *650:A 9.3 
12 *126:56 *649:A 28.6393 
13 *126:26 *655:A 16.7107 
14 *126:18 *656:A 31.6393 
15 *126:16 *654:A 13.8 
16 *126:12 *126:121 20.5179 
17 *126:121 *651:A 15.175 
18 *126:121 *652:A 17.1393 
19 *126:8 *653:A 25.3357 
*END

*D_NET *127 0.0180012
*CONN
*I *666:A I *D sky130_fd_sc_hd__inv_2
*I *662:A I *D sky130_fd_sc_hd__inv_2
*I *663:A I *D sky130_fd_sc_hd__inv_2
*I *661:A I *D sky130_fd_sc_hd__inv_2
*I *665:A I *D sky130_fd_sc_hd__inv_2
*I *660:A I *D sky130_fd_sc_hd__inv_2
*I *667:A I *D sky130_fd_sc_hd__inv_2
*I *659:A I *D sky130_fd_sc_hd__inv_2
*I *664:A I *D sky130_fd_sc_hd__inv_2
*I *668:A I *D sky130_fd_sc_hd__inv_2
*I *658:X O *D sky130_fd_sc_hd__buf_4
*CAP
1 *666:A 0
2 *662:A 0.000141383
3 *663:A 9.96552e-05
4 *661:A 0.000495776
5 *665:A 0.000630747
6 *660:A 0
7 *667:A 8.44999e-05
8 *659:A 0
9 *664:A 0.000166366
10 *668:A 9.07935e-05
11 *658:X 0
12 *127:147 0.000370694
13 *127:132 0.000967146
14 *127:102 0.000699625
15 *127:96 0.00146097
16 *127:82 0.00133207
17 *127:45 0.000290483
18 *127:43 0.00063946
19 *127:30 0.00155865
20 *127:6 0.0013187
21 *661:A *642:B1 6.30282e-05
22 *661:A *760:A 0.000230475
23 *661:A *763:A 3.18676e-05
24 *662:A *143:92 0.000446215
25 *663:A *143:92 0.00027195
26 *664:A *764:A 2.10446e-05
27 *664:A *783:A 6.80593e-05
28 *665:A *621:A1 4.26345e-05
29 *665:A *669:A 0
30 *665:A *673:A 0.000258005
31 *665:A *784:A 1.76039e-05
32 *665:A *155:18 0.000198698
33 *665:A *219:12 9.25014e-06
34 *667:A *755:A 0.000123444
35 *668:A *711:CLK 7.62237e-05
36 *127:30 *597:A 1.24368e-05
37 *127:30 *672:A 0.00011991
38 *127:30 *700:CLK 0.000110772
39 *127:30 *711:CLK 2.85321e-05
40 *127:30 *746:A 0.000336141
41 *127:30 *140:98 6.89649e-05
42 *127:30 *144:56 3.67452e-05
43 *127:30 *151:10 0.000509486
44 *127:30 *166:14 0.000176616
45 *127:43 *601:A1 0.000266363
46 *127:43 *764:A 6.43069e-05
47 *127:43 *140:77 0
48 *127:45 *764:A 6.22052e-05
49 *127:45 *140:77 0
50 *127:82 *679:A1 2.42516e-05
51 *127:82 *129:20 0.000406633
52 *127:82 *151:10 4.73656e-05
53 *127:82 *166:14 1.87955e-05
54 *127:96 *642:C1 0.000123068
55 *127:96 *673:A 0.000155925
56 *127:96 *776:A 0.000230482
57 *127:96 *129:10 0.000372022
58 *127:96 *139:26 2.6949e-05
59 *127:96 *161:29 5.20669e-05
60 *127:102 *621:B1 2.8266e-06
61 *127:102 *673:A 0.00010096
62 *127:102 *161:14 1.97381e-05
63 *127:132 *642:C1 0
64 *127:132 *760:A 0
65 *127:132 *161:14 3.06406e-05
66 *585:B1 *127:30 3.6337e-05
67 *593:A1 *127:30 0.000120128
68 *598:S *127:30 0.000316791
69 *605:A *127:96 0.00015234
70 *632:A2 *665:A 0.000376949
71 *632:A2 *127:96 7.96557e-05
72 *632:A2 *127:102 9.90431e-05
73 *637:B *665:A 0
74 *698:SET_B *127:96 5.71472e-05
75 *700:D *127:30 0.000103437
76 *702:RESET_B *664:A 0.000153054
77 *703:D *127:96 5.65955e-05
78 *703:SET_B *127:102 9.25014e-06
79 *703:SET_B *127:132 0.000195555
80 *707:RESET_B *664:A 3.90513e-05
81 *707:RESET_B *127:45 1.76039e-05
82 *709:RESET_B *127:96 7.83659e-05
83 *713:RESET_B *127:30 0.000102545
84 *715:D *127:30 0.000118118
85 *3:21 *665:A 0
86 *81:69 *127:30 7.74135e-05
87 *82:101 *127:30 0
88 *86:10 *127:30 3.2687e-05
89 *92:20 *665:A 0.000169383
*RES
1 *658:X *127:6 13.8 
2 *127:6 *127:30 38.7321 
3 *127:30 *668:A 11.0857 
4 *127:30 *127:43 13.7321 
5 *127:43 *127:45 2.55357 
6 *127:45 *664:A 18.0143 
7 *127:45 *659:A 13.8 
8 *127:43 *667:A 15.5857 
9 *127:6 *127:82 10.3036 
10 *127:82 *127:96 33.7857 
11 *127:96 *127:102 6.17857 
12 *127:102 *660:A 9.3 
13 *127:102 *665:A 31.6571 
14 *127:96 *127:132 6.875 
15 *127:132 *661:A 22.4607 
16 *127:132 *127:147 6.75 
17 *127:147 *663:A 11.8893 
18 *127:147 *662:A 13.5321 
19 *127:82 *666:A 9.3 
*END

*D_NET *128 0.000565855
*CONN
*I *674:A I *D sky130_fd_sc_hd__clkbuf_4
*I *673:X O *D sky130_fd_sc_hd__and3_1
*CAP
1 *674:A 0.000256233
2 *673:X 0.000256233
3 *674:A *604:A1 0
4 *126:18 *674:A 5.33882e-05
*RES
1 *673:X *674:A 31.1179 
*END

*D_NET *129 0.0121332
*CONN
*I *685:S I *D sky130_fd_sc_hd__mux2_1
*I *677:S I *D sky130_fd_sc_hd__mux2_1
*I *681:S I *D sky130_fd_sc_hd__mux2_1
*I *689:S I *D sky130_fd_sc_hd__mux2_1
*I *683:S I *D sky130_fd_sc_hd__mux2_1
*I *675:S I *D sky130_fd_sc_hd__mux2_1
*I *679:S I *D sky130_fd_sc_hd__mux2_1
*I *687:S I *D sky130_fd_sc_hd__mux2_1
*I *674:X O *D sky130_fd_sc_hd__clkbuf_4
*CAP
1 *685:S 3.79075e-05
2 *677:S 2.22847e-05
3 *681:S 0.000268756
4 *689:S 0
5 *683:S 0.000222271
6 *675:S 4.69169e-05
7 *679:S 0
8 *687:S 0.000561466
9 *674:X 0.00032729
10 *129:86 0.000529224
11 *129:80 0.00107231
12 *129:59 0.00125876
13 *129:55 0.000883836
14 *129:40 0.000818542
15 *129:20 0.00089723
16 *129:10 0.000835679
17 *675:S *675:A0 5.62995e-05
18 *675:S *739:A 0.000186662
19 *681:S *681:A0 9.12695e-05
20 *681:S *681:A1 0
21 *681:S *689:A0 9.80173e-05
22 *683:S *683:A0 9.90367e-05
23 *683:S *215:8 9.37652e-05
24 *685:S *685:A1 5.71472e-05
25 *685:S *208:62 1.69961e-05
26 *687:S *679:A0 0.000118851
27 *687:S *687:A0 5.35386e-05
28 *687:S *141:6 0.00048708
29 *129:10 *166:14 0
30 *129:20 *676:A 0.000223182
31 *129:20 *679:A1 0.000911312
32 *129:40 *139:26 0
33 *129:40 *151:10 0
34 *129:40 *166:14 0
35 *129:55 *638:A2 0
36 *129:55 *685:A0 2.79092e-05
37 *129:55 *728:A 0
38 *129:55 *732:A 6.95299e-05
39 *129:55 *139:26 0
40 *129:55 *151:10 0
41 *129:55 *208:62 7.77751e-05
42 *129:55 *210:14 0
43 *129:59 *640:A0 2.34204e-05
44 *129:59 *640:A1 0
45 *129:59 *732:A 0
46 *129:59 *210:10 0
47 *129:80 *640:A0 3.98131e-05
48 *129:80 *677:A0 7.51937e-05
49 *129:80 *684:A 0
50 *129:80 *733:A 2.97074e-05
51 *129:80 *736:A 5.25774e-05
52 *129:86 *677:A0 7.8195e-05
53 *129:86 *678:A 0.000120512
54 *129:86 *689:A0 4.81257e-05
55 *605:A *129:10 0.000175526
56 *605:A *129:40 3.34295e-05
57 *641:A *129:55 0
58 *653:A *129:59 0
59 *709:D *129:10 0.000128161
60 *720:D *129:80 9.90431e-05
61 *127:82 *129:20 0.000406633
62 *127:96 *129:10 0.000372022
*RES
1 *674:X *129:10 21.925 
2 *129:10 *129:20 16.2857 
3 *129:20 *687:S 30.8 
4 *129:20 *679:S 9.3 
5 *129:10 *129:40 2.85714 
6 *129:40 *675:S 15.5679 
7 *129:40 *129:55 15.6964 
8 *129:55 *129:59 8.57143 
9 *129:59 *683:S 17.9607 
10 *129:59 *129:80 17.4643 
11 *129:80 *129:86 5.19643 
12 *129:86 *689:S 9.3 
13 *129:86 *681:S 14.8357 
14 *129:80 *677:S 9.72857 
15 *129:55 *685:S 10.2464 
*END

*D_NET *130 0.000924079
*CONN
*I *676:A I *D sky130_fd_sc_hd__clkbuf_1
*I *675:X O *D sky130_fd_sc_hd__mux2_1
*CAP
1 *676:A 0.000270368
2 *675:X 0.000270368
3 *676:A *647:A 8.00806e-05
4 *676:A *151:10 8.00806e-05
5 *129:20 *676:A 0.000223182
*RES
1 *675:X *676:A 33.3143 
*END

*D_NET *131 0.000747842
*CONN
*I *678:A I *D sky130_fd_sc_hd__clkbuf_1
*I *677:X O *D sky130_fd_sc_hd__mux2_1
*CAP
1 *678:A 0.000233881
2 *677:X 0.000233881
3 *678:A *690:A 0
4 *678:A *741:A 4.71964e-05
5 *678:A *141:70 9.90367e-05
6 *717:D *678:A 1.33343e-05
7 *129:86 *678:A 0.000120512
*RES
1 *677:X *678:A 31.85 
*END

*D_NET *132 0.000430604
*CONN
*I *680:A I *D sky130_fd_sc_hd__clkbuf_1
*I *679:X O *D sky130_fd_sc_hd__mux2_1
*CAP
1 *680:A 0.000215302
2 *679:X 0.000215302
3 *680:A *679:A0 0
*RES
1 *679:X *680:A 30.6 
*END

*D_NET *133 0.000382186
*CONN
*I *682:A I *D sky130_fd_sc_hd__clkbuf_1
*I *681:X O *D sky130_fd_sc_hd__mux2_1
*CAP
1 *682:A 9.66458e-05
2 *681:X 9.66458e-05
3 *682:A *780:A 0.000110535
4 *719:D *682:A 7.83587e-05
5 *771:A *682:A 0
*RES
1 *681:X *682:A 29.7786 
*END

*D_NET *134 0.000941189
*CONN
*I *684:A I *D sky130_fd_sc_hd__clkbuf_1
*I *683:X O *D sky130_fd_sc_hd__mux2_1
*CAP
1 *684:A 0.000442979
2 *683:X 0.000442979
3 *684:A *151:10 0
4 *684:A *215:8 5.52302e-05
5 *720:D *684:A 0
6 *129:80 *684:A 0
*RES
1 *683:X *684:A 33.3679 
*END

*D_NET *135 0.00148188
*CONN
*I *686:A I *D sky130_fd_sc_hd__clkbuf_1
*I *685:X O *D sky130_fd_sc_hd__mux2_1
*CAP
1 *686:A 0.000351968
2 *685:X 0.000351968
3 *686:A *638:S0 0.000134385
4 *686:A *721:CLK 9.77414e-05
5 *686:A *208:62 0.000356028
6 *686:A *216:8 1.92905e-05
7 *721:D *686:A 0.000170503
*RES
1 *685:X *686:A 27.2607 
*END

*D_NET *136 0.000229819
*CONN
*I *688:A I *D sky130_fd_sc_hd__clkbuf_1
*I *687:X O *D sky130_fd_sc_hd__mux2_1
*CAP
1 *688:A 0.000114909
2 *687:X 0.000114909
*RES
1 *687:X *688:A 20.6893 
*END

*D_NET *137 0.00113226
*CONN
*I *690:A I *D sky130_fd_sc_hd__clkbuf_1
*I *689:X O *D sky130_fd_sc_hd__mux2_1
*CAP
1 *690:A 0.000566132
2 *689:X 0.000566132
3 *690:A *638:A3 0
4 *690:A *741:A 0
5 *678:A *690:A 0
6 *723:D *690:A 0
*RES
1 *689:X *690:A 37.4036 
*END

*D_NET *138 0.000619021
*CONN
*I *698:D I *D sky130_fd_sc_hd__dfstp_1
*I *642:X O *D sky130_fd_sc_hd__a311o_1
*CAP
1 *698:D 0.000245109
2 *642:X 0.000245109
3 *698:D *776:A 5.26091e-05
4 *698:D *139:26 0
5 *642:A3 *698:D 7.61932e-05
*RES
1 *642:X *698:D 31.3143 
*END

*D_NET *139 0.00928549
*CONN
*I *728:A I *D sky130_fd_sc_hd__clkbuf_16
*I *726:A I *D sky130_fd_sc_hd__clkbuf_16
*I *727:A I *D sky130_fd_sc_hd__clkbuf_16
*I *725:A I *D sky130_fd_sc_hd__clkbuf_16
*I *724:X O *D sky130_fd_sc_hd__clkbuf_16
*CAP
1 *728:A 0.000291041
2 *726:A 0.00100894
3 *727:A 0.00011253
4 *725:A 0.000574229
5 *724:X 0
6 *139:26 0.00184233
7 *139:10 0.00124791
8 *139:6 0.0011035
9 *725:A *612:B_N 0.000358374
10 *725:A *764:A 0.000741324
11 *726:A *141:6 3.08664e-05
12 *726:A *141:12 1.49021e-05
13 *726:A *141:38 4.35849e-05
14 *727:A *611:B2 0.000394942
15 *727:A *612:B_N 0.000126109
16 *139:10 *591:A 2.16573e-05
17 *139:10 *592:B1 0
18 *139:10 *603:A 3.34634e-05
19 *139:10 *604:A1 0
20 *139:10 *201:42 0.000146261
21 *139:10 *201:68 0.000182316
22 *139:10 *202:71 1.2294e-05
23 *139:26 *604:A1 0
24 *588:B *139:10 5.53127e-05
25 *604:S *139:10 0.00014576
26 *605:A *139:10 0
27 *605:A *139:26 0
28 *615:A *727:A 4.77002e-05
29 *615:B *727:A 9.58689e-05
30 *642:A3 *728:A 0
31 *642:A3 *139:26 0
32 *698:D *139:26 0
33 *700:RESET_B *139:10 0.000101771
34 *709:RESET_B *139:26 9.14786e-05
35 *730:A *139:10 0.000169095
36 *81:10 *139:10 4.40513e-06
37 *85:49 *139:10 0.000147084
38 *87:12 *727:A 1.85914e-05
39 *90:20 *139:10 0
40 *91:27 *139:10 0
41 *94:23 *139:10 9.4908e-05
42 *127:96 *139:26 2.6949e-05
43 *129:40 *139:26 0
44 *129:55 *728:A 0
45 *129:55 *139:26 0
*RES
1 *724:X *139:6 13.8 
2 *139:6 *139:10 18.2857 
3 *139:10 *725:A 20.925 
4 *139:10 *727:A 13.5321 
5 *139:6 *139:26 9.99107 
6 *139:26 *726:A 24.0675 
7 *139:26 *728:A 18.6125 
*END

*D_NET *140 0.0110623
*CONN
*I *700:CLK I *D sky130_fd_sc_hd__dfrtp_1
*I *713:CLK I *D sky130_fd_sc_hd__dfrtp_1
*I *711:CLK I *D sky130_fd_sc_hd__dfrtp_1
*I *715:CLK I *D sky130_fd_sc_hd__dfrtp_1
*I *701:CLK I *D sky130_fd_sc_hd__dfrtp_4
*I *702:CLK I *D sky130_fd_sc_hd__dfrtp_4
*I *692:CLK I *D sky130_fd_sc_hd__dfrtp_2
*I *710:CLK I *D sky130_fd_sc_hd__dfrtp_1
*I *707:CLK I *D sky130_fd_sc_hd__dfrtp_1
*I *725:X O *D sky130_fd_sc_hd__clkbuf_16
*CAP
1 *700:CLK 0.000260194
2 *713:CLK 0.000273305
3 *711:CLK 0.000605012
4 *715:CLK 0.000215405
5 *701:CLK 0.000395867
6 *702:CLK 0.000160549
7 *692:CLK 0
8 *710:CLK 0.000208903
9 *707:CLK 3.82418e-05
10 *725:X 0.000188931
11 *140:98 0.000938213
12 *140:96 0.000492763
13 *140:77 0.000870075
14 *140:53 0.000742758
15 *140:46 0.000505453
16 *140:40 0.00117071
17 *140:14 0.000687505
18 *140:12 0.000998891
19 *700:CLK *585:A1 0.000152823
20 *702:CLK *202:21 0.000149959
21 *713:CLK *753:A 0
22 *713:CLK *778:A 0
23 *715:CLK *746:A 4.711e-05
24 *140:12 *764:A 0
25 *140:12 *777:A 3.92854e-05
26 *140:12 *782:A 0.000143541
27 *140:14 *707:D 0.000191796
28 *140:40 *707:D 3.70564e-05
29 *140:53 *692:D 3.42103e-05
30 *140:77 *601:A1 8.58537e-05
31 *585:A4 *700:CLK 9.66977e-05
32 *585:B1 *700:CLK 1.84776e-05
33 *668:A *711:CLK 7.62237e-05
34 *692:RESET_B *701:CLK 2.51837e-05
35 *702:RESET_B *140:46 2.00751e-05
36 *707:RESET_B *140:40 0.000347893
37 *707:RESET_B *140:46 9.24395e-05
38 *710:D *710:CLK 6.05161e-06
39 *711:RESET_B *711:CLK 0.000116952
40 *713:D *713:CLK 3.79467e-05
41 *715:RESET_B *713:CLK 3.82419e-05
42 *715:RESET_B *715:CLK 1.2828e-05
43 *715:RESET_B *140:96 0.000145484
44 *759:A *140:40 1.92789e-05
45 *81:69 *700:CLK 6.58992e-05
46 *88:10 *702:CLK 9.99853e-05
47 *127:30 *700:CLK 0.000110772
48 *127:30 *711:CLK 2.85321e-05
49 *127:30 *140:98 6.89649e-05
50 *127:43 *140:77 0
51 *127:45 *140:77 0
*RES
1 *725:X *140:12 22.3 
2 *140:12 *140:14 5.875 
3 *140:14 *707:CLK 10.0321 
4 *140:14 *710:CLK 21.425 
5 *140:12 *140:40 9.55357 
6 *140:40 *140:46 10.25 
7 *140:46 *692:CLK 9.3 
8 *140:46 *140:53 3 
9 *140:53 *702:CLK 21.925 
10 *140:53 *701:CLK 15.175 
11 *140:40 *140:77 8.32143 
12 *140:77 *715:CLK 16.8357 
13 *140:77 *140:96 8.08929 
14 *140:96 *140:98 1.35714 
15 *140:98 *711:CLK 20.1036 
16 *140:98 *713:CLK 22.9786 
17 *140:96 *700:CLK 15.175 
*END

*D_NET *141 0.00952837
*CONN
*I *718:CLK I *D sky130_fd_sc_hd__dfxtp_1
*I *720:CLK I *D sky130_fd_sc_hd__dfxtp_1
*I *723:CLK I *D sky130_fd_sc_hd__dfxtp_1
*I *719:CLK I *D sky130_fd_sc_hd__dfxtp_1
*I *722:CLK I *D sky130_fd_sc_hd__dfxtp_1
*I *717:CLK I *D sky130_fd_sc_hd__dfxtp_1
*I *721:CLK I *D sky130_fd_sc_hd__dfxtp_1
*I *716:CLK I *D sky130_fd_sc_hd__dfxtp_1
*I *709:CLK I *D sky130_fd_sc_hd__dfrtp_1
*I *726:X O *D sky130_fd_sc_hd__clkbuf_16
*CAP
1 *718:CLK 2.22847e-05
2 *720:CLK 0.000122926
3 *723:CLK 0
4 *719:CLK 3.72884e-05
5 *722:CLK 0.000423076
6 *717:CLK 0
7 *721:CLK 3.15358e-05
8 *716:CLK 0.000126152
9 *709:CLK 0.000635573
10 *726:X 0.000324474
11 *141:74 0.000570824
12 *141:70 0.000600357
13 *141:57 0.00065337
14 *141:55 0.000454883
15 *141:38 0.000616583
16 *141:14 0.000863703
17 *141:12 0.000623918
18 *141:6 0.000452136
19 *709:CLK *647:A 0
20 *709:CLK *144:71 0
21 *720:CLK *638:A1 9.43968e-05
22 *720:CLK *640:A3 8.9851e-05
23 *720:CLK *218:6 5.30637e-06
24 *721:CLK *638:A1 2.09897e-05
25 *721:CLK *638:S0 4.82947e-05
26 *141:14 *647:A 0
27 *141:38 *638:A1 7.25296e-05
28 *141:38 *638:S0 0.000255132
29 *141:38 *638:S1 0
30 *141:38 *640:A2 8.75335e-06
31 *141:38 *151:10 0
32 *141:55 *638:A1 0.000303947
33 *141:55 *638:S0 6.52971e-06
34 *141:55 *640:A2 0.000126235
35 *141:55 *741:A 0
36 *141:57 *218:6 0.00016007
37 *141:70 *218:6 0.000142492
38 rx_data[5] *141:74 0
39 *678:A *141:70 9.90367e-05
40 *686:A *721:CLK 9.77414e-05
41 *687:S *141:6 0.00048708
42 *716:D *709:CLK 4.93196e-05
43 *716:D *716:CLK 0.000102583
44 *717:D *141:57 0.000126934
45 *717:D *141:70 4.14279e-05
46 *718:D *716:CLK 0.000111106
47 *718:D *141:14 7.58841e-05
48 *718:D *141:38 7.93838e-05
49 *719:D *141:74 0.000128154
50 *722:D *722:CLK 5.66971e-05
51 *723:D *722:CLK 5.5782e-05
52 *723:D *141:70 1.64343e-05
53 *723:D *141:74 1.78447e-05
54 *726:A *141:6 3.08664e-05
55 *726:A *141:12 1.49021e-05
56 *726:A *141:38 4.35849e-05
*RES
1 *726:X *141:6 15.5857 
2 *141:6 *141:12 5.875 
3 *141:12 *141:14 1.94643 
4 *141:14 *709:CLK 23.5321 
5 *141:14 *716:CLK 16.8 
6 *141:12 *141:38 9.00893 
7 *141:38 *721:CLK 15.0232 
8 *141:38 *141:55 9.15179 
9 *141:55 *141:57 4.23214 
10 *141:57 *717:CLK 9.3 
11 *141:57 *141:70 9.73214 
12 *141:70 *141:74 6.75 
13 *141:74 *722:CLK 22.05 
14 *141:74 *719:CLK 14.3357 
15 *141:70 *723:CLK 9.3 
16 *141:55 *720:CLK 12.3 
17 *141:6 *718:CLK 9.72857 
*END

*D_NET *142 0.00943369
*CONN
*I *699:CLK I *D sky130_fd_sc_hd__dfrtp_1
*I *708:CLK I *D sky130_fd_sc_hd__dfrtp_1
*I *691:CLK I *D sky130_fd_sc_hd__dfstp_1
*I *712:CLK I *D sky130_fd_sc_hd__dfrtp_1
*I *693:CLK I *D sky130_fd_sc_hd__dfrtp_1
*I *694:CLK I *D sky130_fd_sc_hd__dfrtp_1
*I *727:X O *D sky130_fd_sc_hd__clkbuf_16
*CAP
1 *699:CLK 0
2 *708:CLK 0.000415456
3 *691:CLK 0.000205599
4 *712:CLK 0.000487239
5 *693:CLK 0
6 *694:CLK 0.000725354
7 *727:X 0.000132469
8 *142:62 0.000693119
9 *142:43 0.000571395
10 *142:32 0.000683182
11 *142:12 0.00086318
12 *142:8 0.000378105
13 *694:CLK *694:D 4.37999e-05
14 *694:CLK *159:28 3.46657e-05
15 *694:CLK *207:14 2.89114e-05
16 *708:CLK *784:A 5.62995e-05
17 *712:CLK *580:B 0.000200507
18 *712:CLK *580:C 8.23811e-05
19 *712:CLK *587:C 0.000228665
20 *712:CLK *207:34 0.000137639
21 *712:CLK *207:49 5.33005e-05
22 *142:12 *198:12 4.24858e-05
23 *142:12 *207:14 0.000223592
24 *142:62 *635:A 0.000196993
25 *142:62 *198:12 1.13495e-05
26 *607:S *708:CLK 0.000163434
27 *610:B1 *712:CLK 5.49489e-05
28 *611:A2 *712:CLK 1.51571e-05
29 *617:A2 *694:CLK 1.55953e-05
30 *636:B1 *142:12 7.55553e-05
31 *636:B1 *142:32 0.000132727
32 *636:B1 *142:43 7.66139e-05
33 *636:B1 *142:62 7.36697e-05
34 *655:A *708:CLK 0.000397596
35 *691:SET_B *142:62 0.000332796
36 *694:RESET_B *694:CLK 4.8409e-05
37 *694:RESET_B *142:12 5.66157e-05
38 *712:D *712:CLK 3.11088e-05
39 *24:6 *712:CLK 0.000397236
40 *82:14 *708:CLK 0.000126439
41 *82:83 *708:CLK 4.49293e-05
42 *85:16 *712:CLK 7.62237e-05
43 *92:20 *142:62 0.000355357
44 *96:18 *691:CLK 0.000169102
45 *126:30 *708:CLK 0
46 *126:30 *142:12 5.58053e-05
47 *126:30 *142:32 0.000133922
48 *126:30 *142:43 8.0025e-05
49 *126:30 *142:62 2.4741e-05
*RES
1 *727:X *142:8 15.1571 
2 *142:8 *142:12 8.875 
3 *142:12 *694:CLK 19.2286 
4 *142:12 *693:CLK 9.3 
5 *142:8 *142:32 3.46429 
6 *142:32 *712:CLK 26.2464 
7 *142:32 *142:43 2.25 
8 *142:43 *691:CLK 18.175 
9 *142:43 *142:62 12.8929 
10 *142:62 *708:CLK 28.4786 
11 *142:62 *699:CLK 9.3 
*END

*D_NET *143 0.0111983
*CONN
*I *705:CLK I *D sky130_fd_sc_hd__dfrtp_1
*I *704:CLK I *D sky130_fd_sc_hd__dfrtp_4
*I *714:CLK I *D sky130_fd_sc_hd__dfrtp_1
*I *695:CLK I *D sky130_fd_sc_hd__dfrtp_4
*I *696:CLK I *D sky130_fd_sc_hd__dfrtp_4
*I *697:CLK I *D sky130_fd_sc_hd__dfrtp_1
*I *706:CLK I *D sky130_fd_sc_hd__dfrtp_1
*I *703:CLK I *D sky130_fd_sc_hd__dfstp_1
*I *698:CLK I *D sky130_fd_sc_hd__dfstp_1
*I *728:X O *D sky130_fd_sc_hd__clkbuf_16
*CAP
1 *705:CLK 0
2 *704:CLK 0.000611947
3 *714:CLK 0.000399087
4 *695:CLK 0.00017544
5 *696:CLK 0.000552891
6 *697:CLK 0.000208483
7 *706:CLK 1.40355e-05
8 *703:CLK 0.000116972
9 *698:CLK 0.000354814
10 *728:X 0
11 *143:94 0.00101103
12 *143:92 0.00058659
13 *143:49 0.000770167
14 *143:45 0.00061065
15 *143:14 0.00059583
16 *143:10 0.000264294
17 *143:8 0.000669047
18 *143:4 0.000703006
19 *695:CLK *683:A1 3.57366e-05
20 *695:CLK *745:A 5.80217e-05
21 *697:CLK *209:87 9.09605e-05
22 *698:CLK *679:A1 7.43578e-06
23 *698:CLK *188:26 0.000374759
24 *703:CLK *188:26 0.000286795
25 *706:CLK *642:C1 2.89114e-05
26 *714:CLK *760:A 0
27 *714:CLK *763:A 0.000220448
28 *714:CLK *219:12 0.000128146
29 *143:10 *198:12 1.56132e-05
30 *143:14 *642:C1 0
31 *143:14 *198:12 7.49239e-05
32 *143:45 *624:B 0
33 *143:45 *745:A 5.25615e-05
34 *143:45 *198:12 0.000134667
35 *143:45 *208:44 7.8327e-05
36 *143:45 *209:27 4.038e-06
37 *623:B1 *143:45 2.09897e-05
38 *628:A2 *696:CLK 8.07951e-05
39 *630:B1 *696:CLK 7.70035e-05
40 *637:B *714:CLK 0
41 *645:A *143:45 7.89362e-05
42 *662:A *143:92 0.000446215
43 *663:A *143:92 0.00027195
44 *696:RESET_B *696:CLK 0.000374652
45 *696:RESET_B *143:49 1.04232e-05
46 *705:D *714:CLK 0.000113153
47 *705:RESET_B *143:92 0.000147399
48 *706:D *706:CLK 5.52302e-05
49 *706:D *143:10 0.000107104
50 *706:D *143:45 3.41848e-05
51 *706:RESET_B *143:10 0
52 *706:RESET_B *143:14 0
53 *735:A *695:CLK 7.80929e-05
54 *735:A *143:45 6.65398e-05
*RES
1 *728:X *143:4 9.3 
2 *143:4 *143:8 5.85714 
3 *143:8 *143:10 3.16071 
4 *143:10 *143:14 7.05357 
5 *143:14 *698:CLK 17.3893 
6 *143:14 *703:CLK 12.3 
7 *143:10 *706:CLK 14.3357 
8 *143:8 *143:45 8.92857 
9 *143:45 *143:49 4.92857 
10 *143:49 *697:CLK 12.7286 
11 *143:49 *696:CLK 26.4607 
12 *143:45 *695:CLK 17.8357 
13 *143:4 *143:92 11.6607 
14 *143:92 *143:94 4.5 
15 *143:94 *714:CLK 22.5679 
16 *143:94 *704:CLK 23.3714 
17 *143:92 *705:CLK 9.3 
*END

*D_NET *144 0.0156233
*CONN
*I *671:A I *D sky130_fd_sc_hd__inv_2
*I *646:A I *D sky130_fd_sc_hd__inv_2
*I *647:A I *D sky130_fd_sc_hd__buf_4
*I *658:A I *D sky130_fd_sc_hd__buf_4
*I *670:A I *D sky130_fd_sc_hd__inv_2
*I *672:A I *D sky130_fd_sc_hd__inv_2
*I *669:A I *D sky130_fd_sc_hd__inv_2
*I *765:X O *D sky130_fd_sc_hd__clkbuf_4
*CAP
1 *671:A 5.02728e-05
2 *646:A 0
3 *647:A 0.000828503
4 *658:A 0
5 *670:A 0.00015344
6 *672:A 0.000214762
7 *669:A 0.000282727
8 *765:X 0.00114267
9 *144:71 0.00108715
10 *144:56 0.000522931
11 *144:39 0.000890793
12 *144:35 0.001328
13 *144:18 0.00133819
14 *144:12 0.00148559
15 *647:A *638:A0 0.000267669
16 *647:A *744:A 1.58163e-05
17 *647:A *151:10 0.000363637
18 *669:A *775:A 0
19 *671:A *188:26 5.33005e-05
20 *144:12 *634:B1 0
21 *144:12 *704:D 0.000173015
22 *144:12 *775:A 0
23 *144:18 *775:A 0
24 *144:35 *699:D 9.63055e-05
25 *144:35 *155:18 0.000349819
26 *144:39 *754:A 1.74352e-05
27 *144:56 *151:10 0.000128154
28 *144:71 *151:10 0.00041304
29 *589:A0 *144:18 2.60251e-05
30 *590:A *669:A 9.25014e-06
31 *590:A *144:18 0.000153054
32 *592:A3 *672:A 0
33 *593:A2 *672:A 9.66977e-05
34 *593:B1 *672:A 0.000270085
35 *605:A *144:39 2.27416e-05
36 *637:A *144:18 0.000175354
37 *639:B *647:A 0.00033143
38 *665:A *669:A 0
39 *676:A *647:A 8.00806e-05
40 *705:D *144:12 0
41 *708:RESET_B *669:A 3.69047e-06
42 *709:CLK *647:A 0
43 *709:CLK *144:71 0
44 *713:D *672:A 5.71472e-05
45 *713:RESET_B *144:39 0.000139913
46 *714:D *144:18 0.000111337
47 *714:RESET_B *144:18 0.000177234
48 *761:A *144:35 0.000188586
49 *82:83 *144:35 0.00034485
50 *82:83 *144:39 0.00100144
51 *82:93 *672:A 0.000145212
52 *82:93 *144:39 0.000662718
53 *82:101 *672:A 5.65955e-05
54 *82:126 *672:A 7.09477e-05
55 *92:20 *669:A 6.42242e-05
56 *92:20 *144:18 7.4826e-05
57 *127:30 *672:A 0.00011991
58 *127:30 *144:56 3.67452e-05
59 *141:14 *647:A 0
*RES
1 *765:X *144:12 35.2286 
2 *144:12 *144:18 8.67857 
3 *144:18 *669:A 18.7643 
4 *144:18 *144:35 21.0536 
5 *144:35 *144:39 20.2321 
6 *144:39 *672:A 20.1214 
7 *144:39 *144:56 2.55357 
8 *144:56 *670:A 15.9964 
9 *144:56 *144:71 5.82143 
10 *144:71 *658:A 13.8 
11 *144:71 *647:A 29.7464 
12 *144:35 *646:A 9.3 
13 *144:12 *671:A 14.7643 
*END

*D_NET *145 0.00159199
*CONN
*I *689:A1 I *D sky130_fd_sc_hd__mux2_1
*I *766:X O *D sky130_fd_sc_hd__clkbuf_1
*CAP
1 *689:A1 0.000641942
2 *766:X 0.000641942
3 *689:A1 *681:A0 0
4 *689:A1 *689:A0 0
5 *689:A1 *741:A 0
6 *689:A1 *780:A 0.000118584
7 *719:D *689:A1 1.40306e-05
8 *771:A *689:A1 0.000175493
*RES
1 *766:X *689:A1 38.7964 
*END

*D_NET *146 0.00485569
*CONN
*I *775:A I *D sky130_fd_sc_hd__clkbuf_4
*I *758:A I *D sky130_fd_sc_hd__dlygate4sd3_1
*I *708:Q O *D sky130_fd_sc_hd__dfrtp_1
*CAP
1 *775:A 0.00153897
2 *758:A 0.000126829
3 *708:Q 7.75592e-05
4 *146:10 0.00174336
5 *775:A *622:B_N 0.000143804
6 *775:A *756:A 9.81719e-05
7 *775:A *781:A 0.000208225
8 *775:A *155:10 0.000100726
9 *775:A *188:26 8.16036e-05
10 *775:A *221:8 0.000318248
11 *146:10 *784:A 2.87077e-05
12 rx_data[6] *775:A 6.27457e-05
13 *589:A0 *775:A 0
14 *590:A *775:A 0
15 *669:A *775:A 0
16 *708:RESET_B *775:A 0
17 *712:RESET_B *758:A 0.000174682
18 *712:RESET_B *775:A 0.000152064
19 *714:D *775:A 0
20 *714:RESET_B *775:A 0
21 *92:20 *775:A 0
22 *144:12 *775:A 0
23 *144:18 *775:A 0
*RES
1 *708:Q *146:10 15.0679 
2 *146:10 *758:A 16.05 
3 *146:10 *775:A 47.6214 
*END

*D_NET *147 0.00495174
*CONN
*I *776:A I *D sky130_fd_sc_hd__clkbuf_4
*I *604:A1 I *D sky130_fd_sc_hd__mux2_1
*I *709:Q O *D sky130_fd_sc_hd__dfrtp_1
*CAP
1 *776:A 0.00123532
2 *604:A1 0.000573645
3 *709:Q 0
4 *147:4 0.00180897
5 *776:A *639:A 0.000196309
6 *776:A *642:A1 0
7 *776:A *683:A0 5.26184e-05
8 *776:A *683:A1 0
9 *776:A *697:D 3.92854e-05
10 *776:A *733:A 0
11 *776:A *209:8 0
12 *776:A *209:10 0
13 *776:A *209:16 0
14 *776:A *220:47 0
15 *604:S *604:A1 0
16 *642:A3 *776:A 0.000199362
17 *653:A *776:A 0
18 *674:A *604:A1 0
19 *697:RESET_B *776:A 0
20 *698:D *776:A 5.26091e-05
21 *735:A *776:A 0
22 *82:83 *604:A1 0.000269422
23 *126:16 *604:A1 0
24 *126:16 *776:A 0.000293718
25 *126:18 *604:A1 0
26 *127:96 *776:A 0.000230482
27 *139:10 *604:A1 0
28 *139:26 *604:A1 0
*RES
1 *709:Q *147:4 9.3 
2 *147:4 *604:A1 27.3893 
3 *147:4 *776:A 43.675 
*END

*D_NET *148 0.00259225
*CONN
*I *755:A I *D sky130_fd_sc_hd__dlygate4sd3_1
*I *777:A I *D sky130_fd_sc_hd__clkbuf_4
*I *710:Q O *D sky130_fd_sc_hd__dfrtp_1
*CAP
1 *755:A 0.000390757
2 *777:A 0.00067831
3 *710:Q 0
4 *148:4 0.00106907
5 *777:A *764:A 5.53406e-05
6 *777:A *782:A 0
7 *777:A *783:A 0.000119718
8 *777:A *202:12 1.72894e-05
9 *667:A *755:A 0.000123444
10 *710:RESET_B *755:A 9.90431e-05
11 *140:12 *777:A 3.92854e-05
*RES
1 *710:Q *148:4 9.3 
2 *148:4 *777:A 30.7821 
3 *148:4 *755:A 15.6214 
*END

*D_NET *149 0.00221896
*CONN
*I *753:A I *D sky130_fd_sc_hd__dlygate4sd3_1
*I *778:A I *D sky130_fd_sc_hd__clkbuf_4
*I *711:Q O *D sky130_fd_sc_hd__dfrtp_1
*CAP
1 *753:A 0.000147772
2 *778:A 0.000497032
3 *711:Q 0
4 *149:6 0.000644804
5 *753:A *598:A1 5.52302e-05
6 *778:A *746:A 9.41642e-05
7 *598:S *753:A 0.000316184
8 *601:A0 *753:A 3.15739e-05
9 *601:A0 *778:A 0.000101474
10 *711:D *778:A 0.0001871
11 *713:CLK *753:A 0
12 *713:CLK *778:A 0
13 *82:126 *753:A 0.000143625
*RES
1 *711:Q *149:6 13.8 
2 *149:6 *778:A 23.1929 
3 *149:6 *753:A 18.4429 
*END

*D_NET *150 0.00170629
*CONN
*I *752:A I *D sky130_fd_sc_hd__dlygate4sd3_1
*I *779:A I *D sky130_fd_sc_hd__clkbuf_4
*I *712:Q O *D sky130_fd_sc_hd__dfrtp_1
*CAP
1 *752:A 6.64392e-05
2 *779:A 0.000365511
3 *712:Q 0.000170389
4 *150:10 0.000602339
5 *779:A *155:10 0.000397279
6 *150:10 *155:10 7.5802e-05
7 *712:RESET_B *150:10 2.85321e-05
*RES
1 *712:Q *150:10 16.6929 
2 *150:10 *779:A 23.0321 
3 *150:10 *752:A 14.7464 
*END

*D_NET *151 0.00809411
*CONN
*I *754:A I *D sky130_fd_sc_hd__dlygate4sd3_1
*I *780:A I *D sky130_fd_sc_hd__clkbuf_4
*I *713:Q O *D sky130_fd_sc_hd__dfrtp_1
*CAP
1 *754:A 0.000135206
2 *780:A 0.00105784
3 *713:Q 0
4 *151:10 0.00202814
5 *151:4 0.00110551
6 *780:A *681:A1 0.000115817
7 *780:A *741:A 0.000186662
8 *780:A *743:A 4.75972e-05
9 *151:10 *638:A0 9.94093e-05
10 *151:10 *638:A2 0.000165078
11 *151:10 *638:S1 0.000197291
12 *151:10 *640:A3 4.19319e-05
13 *151:10 *640:S0 8.98585e-05
14 *151:10 *640:S1 8.15095e-05
15 *151:10 *743:A 0
16 *151:10 *166:14 0
17 *151:10 *208:62 0.000105689
18 *151:10 *213:10 0.000148514
19 *641:A *151:10 8.54375e-05
20 *647:A *151:10 0.000363637
21 *676:A *151:10 8.00806e-05
22 *682:A *780:A 0.000110535
23 *684:A *151:10 0
24 *689:A1 *780:A 0.000118584
25 *713:RESET_B *754:A 8.7498e-05
26 *720:D *151:10 0.000154762
27 *769:A *780:A 9.77414e-05
28 *771:A *780:A 0.000274294
29 *127:30 *151:10 0.000509486
30 *127:82 *151:10 4.73656e-05
31 *129:40 *151:10 0
32 *129:55 *151:10 0
33 *141:38 *151:10 0
34 *144:39 *754:A 1.74352e-05
35 *144:56 *151:10 0.000128154
36 *144:71 *151:10 0.00041304
*RES
1 *713:Q *151:4 9.3 
2 *151:4 *151:10 37.0536 
3 *151:10 *780:A 37.1571 
4 *151:4 *754:A 11.3893 
*END

*D_NET *152 0.00251442
*CONN
*I *781:A I *D sky130_fd_sc_hd__clkbuf_4
*I *756:A I *D sky130_fd_sc_hd__dlygate4sd3_1
*I *714:Q O *D sky130_fd_sc_hd__dfrtp_1
*CAP
1 *781:A 0.00066864
2 *756:A 0.000126275
3 *714:Q 5.05799e-05
4 *152:8 0.000845496
5 *781:A *622:B_N 8.16036e-05
6 *781:A *188:26 0.000153054
7 *781:A *221:8 0.000167005
8 rx_data[6] *781:A 0.000115369
9 *770:A *781:A 0
10 *775:A *756:A 9.81719e-05
11 *775:A *781:A 0.000208225
*RES
1 *714:Q *152:8 14.3357 
2 *152:8 *756:A 16.9607 
3 *152:8 *781:A 30.3179 
*END

*D_NET *153 0.00508458
*CONN
*I *746:A I *D sky130_fd_sc_hd__dlygate4sd3_1
*I *782:A I *D sky130_fd_sc_hd__clkbuf_4
*I *715:Q O *D sky130_fd_sc_hd__dfrtp_1
*CAP
1 *746:A 0.000859048
2 *782:A 0.00116542
3 *715:Q 0
4 *153:6 0.00202447
5 *782:A *783:A 0
6 *601:A0 *746:A 0.000128668
7 *601:A0 *782:A 7.89362e-05
8 *602:A *782:A 2.48421e-05
9 *710:D *782:A 0
10 *715:CLK *746:A 4.711e-05
11 *715:RESET_B *746:A 0.000176184
12 *777:A *782:A 0
13 *778:A *746:A 9.41642e-05
14 *86:10 *746:A 6.05161e-06
15 *127:30 *746:A 0.000336141
16 *140:12 *782:A 0.000143541
*RES
1 *715:Q *153:6 13.8 
2 *153:6 *782:A 34.9607 
3 *153:6 *746:A 27.7643 
*END

*D_NET *154 0.0043286
*CONN
*I *764:A I *D sky130_fd_sc_hd__dlygate4sd3_1
*I *783:A I *D sky130_fd_sc_hd__clkbuf_4
*I *707:Q O *D sky130_fd_sc_hd__dfrtp_1
*CAP
1 *764:A 0.000860579
2 *783:A 0.000470671
3 *707:Q 0
4 *154:6 0.00133125
5 *764:A *612:B_N 0.000100165
6 *764:A *707:D 4.66561e-05
7 *664:A *764:A 2.10446e-05
8 *664:A *783:A 6.80593e-05
9 *702:RESET_B *783:A 0
10 *725:A *764:A 0.000741324
11 *730:A *764:A 0.000387281
12 *777:A *764:A 5.53406e-05
13 *777:A *783:A 0.000119718
14 *782:A *783:A 0
15 *127:43 *764:A 6.43069e-05
16 *127:45 *764:A 6.22052e-05
17 *140:12 *764:A 0
*RES
1 *707:Q *154:6 13.8 
2 *154:6 *783:A 23.4964 
3 *154:6 *764:A 33.2107 
*END

*D_NET *155 0.00808152
*CONN
*I *631:A I *D sky130_fd_sc_hd__inv_2
*I *673:B I *D sky130_fd_sc_hd__and3_1
*I *767:X O *D sky130_fd_sc_hd__buf_1
*CAP
1 *631:A 7.14123e-05
2 *673:B 0.000936713
3 *767:X 0.000903038
4 *155:18 0.00180801
5 *155:10 0.00170292
6 *673:B *621:A1 0.000233559
7 *673:B *621:B1 4.93028e-05
8 *673:B *635:A 9.71197e-05
9 *673:B *737:A 6.19616e-05
10 *155:18 *621:A1 0.000200406
11 rx_data[4] *155:10 1.21955e-05
12 tx_done *155:10 0.00016469
13 *590:A *155:18 8.07313e-05
14 *621:A2 *631:A 3.51393e-05
15 *637:A *673:B 2.13481e-06
16 *637:B *631:A 5.52238e-05
17 *665:A *155:18 0.000198698
18 *673:C *673:B 1.15172e-05
19 *712:RESET_B *155:10 0.00053311
20 *775:A *155:10 0.000100726
21 *779:A *155:10 0.000397279
22 *144:35 *155:18 0.000349819
23 *150:10 *155:10 7.5802e-05
*RES
1 *767:X *155:10 41.1929 
2 *155:10 *155:18 21.125 
3 *155:18 *673:B 22.0321 
4 *155:18 *631:A 10.8714 
*END

*D_NET *156 0.00318113
*CONN
*I *621:A1 I *D sky130_fd_sc_hd__a21o_1
*I *784:A I *D sky130_fd_sc_hd__buf_2
*I *699:Q O *D sky130_fd_sc_hd__dfrtp_1
*CAP
1 *621:A1 0.000240792
2 *784:A 0.000756346
3 *699:Q 7.34252e-05
4 *156:8 0.00107056
5 *607:S *784:A 0.000142985
6 *608:A *784:A 0
7 *621:A2 *621:A1 0.000221802
8 *665:A *621:A1 4.26345e-05
9 *665:A *784:A 1.76039e-05
10 *673:B *621:A1 0.000233559
11 *699:RESET_B *784:A 0
12 *708:CLK *784:A 5.62995e-05
13 *708:D *784:A 1.08881e-05
14 *708:RESET_B *784:A 4.83905e-05
15 *761:A *621:A1 0
16 *3:21 *784:A 0
17 *92:20 *156:8 3.67257e-05
18 *146:10 *784:A 2.87077e-05
19 *155:18 *621:A1 0.000200406
*RES
1 *699:Q *156:8 14.7464 
2 *156:8 *784:A 27.2107 
3 *156:8 *621:A1 20.4786 
*END

*D_NET *157 0.000798274
*CONN
*I *634:B1 I *D sky130_fd_sc_hd__a21o_1
*I *729:X O *D sky130_fd_sc_hd__dlygate4sd3_1
*CAP
1 *634:B1 0.000327033
2 *729:X 0.000327033
3 *634:B1 *622:A 5.41494e-05
4 *634:B1 *704:D 9.97875e-06
5 *634:A2 *634:B1 0
6 *740:A *634:B1 8.00806e-05
7 *144:12 *634:B1 0
*RES
1 *729:X *634:B1 32.7786 
*END

*D_NET *158 0.00059509
*CONN
*I *704:D I *D sky130_fd_sc_hd__dfrtp_4
*I *740:X O *D sky130_fd_sc_hd__dlygate4sd3_1
*CAP
1 *704:D 0.000206048
2 *740:X 0.000206048
3 *634:B1 *704:D 9.97875e-06
4 *144:12 *704:D 0.000173015
*RES
1 *740:X *704:D 31.2071 
*END

*D_NET *159 0.00492068
*CONN
*I *633:B1 I *D sky130_fd_sc_hd__a21o_1
*I *751:X O *D sky130_fd_sc_hd__dlygate4sd3_1
*CAP
1 *633:B1 0
2 *751:X 0.00136403
3 *159:28 0.00136403
4 *159:28 *612:B_N 6.2155e-06
5 *159:28 *617:A1 6.74293e-05
6 *159:28 *617:B2 0.000261346
7 *159:28 *633:A1 0.000513257
8 *159:28 *636:A1 1.32552e-05
9 *159:28 *636:A2 0.000446603
10 *159:28 *692:D 3.42509e-05
11 *159:28 *694:D 0.000106137
12 *159:28 *707:D 2.41665e-05
13 *159:28 *750:A 0.000225616
14 *159:28 *201:12 4.46186e-06
15 *159:28 *201:29 2.26424e-05
16 *159:28 *207:14 4.35336e-05
17 *617:A2 *159:28 7.49387e-06
18 *633:A2 *159:28 2.60984e-05
19 *636:B1 *159:28 0.000251362
20 *694:CLK *159:28 3.46657e-05
21 *759:A *159:28 0.000104094
*RES
1 *751:X *159:28 44.2464 
2 *159:28 *633:B1 9.3 
*END

*D_NET *160 0.000455393
*CONN
*I *692:D I *D sky130_fd_sc_hd__dfrtp_2
*I *759:X O *D sky130_fd_sc_hd__dlygate4sd3_1
*CAP
1 *692:D 0.000175302
2 *759:X 0.000175302
3 *88:10 *692:D 3.63281e-05
4 *140:53 *692:D 3.42103e-05
5 *159:28 *692:D 3.42509e-05
*RES
1 *759:X *692:D 30.1759 
*END

*D_NET *161 0.00455813
*CONN
*I *632:B1 I *D sky130_fd_sc_hd__a21o_1
*I *642:C1 I *D sky130_fd_sc_hd__a311o_1
*I *621:B1 I *D sky130_fd_sc_hd__a21o_1
*I *760:X O *D sky130_fd_sc_hd__clkdlybuf4s25_1
*CAP
1 *632:B1 0
2 *642:C1 0.000497772
3 *621:B1 0.000182553
4 *760:X 0.000516209
5 *161:29 0.00051856
6 *161:14 0.00071955
7 *621:B1 *620:A 0
8 *642:C1 *642:B1 0.000437252
9 *642:C1 *673:A 0.000230431
10 *642:C1 *203:10 0
11 *161:14 *188:26 0.000816152
12 *161:14 *219:8 7.71303e-05
13 *161:29 *673:A 8.51331e-05
14 *632:A2 *621:B1 0
15 *673:B *621:B1 4.93028e-05
16 *703:D *642:C1 6.74911e-05
17 *706:CLK *642:C1 2.89114e-05
18 *706:D *642:C1 0.000100951
19 *706:RESET_B *642:C1 2.38651e-06
20 *127:96 *642:C1 0.000123068
21 *127:96 *161:29 5.20669e-05
22 *127:102 *621:B1 2.8266e-06
23 *127:102 *161:14 1.97381e-05
24 *127:132 *642:C1 0
25 *127:132 *161:14 3.06406e-05
26 *143:14 *642:C1 0
*RES
1 *760:X *161:14 24.6393 
2 *161:14 *621:B1 16.9964 
3 *161:14 *161:29 5.44643 
4 *161:29 *642:C1 30.4786 
5 *161:29 *632:B1 9.3 
*END

*D_NET *162 0.000688325
*CONN
*I *699:D I *D sky130_fd_sc_hd__dfrtp_1
*I *761:X O *D sky130_fd_sc_hd__dlygate4sd3_1
*CAP
1 *699:D 0.000240536
2 *761:X 0.000240536
3 *82:83 *699:D 8.00806e-05
4 *92:20 *699:D 3.08664e-05
5 *144:35 *699:D 9.63055e-05
*RES
1 *761:X *699:D 31.3679 
*END

*D_NET *163 0.00103757
*CONN
*I *620:A I *D sky130_fd_sc_hd__inv_2
*I *632:A1 I *D sky130_fd_sc_hd__a21o_1
*I *762:X O *D sky130_fd_sc_hd__dlygate4sd3_1
*CAP
1 *620:A 0.000122021
2 *632:A1 0.000177251
3 *762:X 0
4 *163:4 0.000299272
5 *632:A1 *673:A 0.000272371
6 *621:A2 *620:A 0.000134789
7 *621:B1 *620:A 0
8 *632:A2 *620:A 0
9 *112:6 *620:A 3.18676e-05
*RES
1 *762:X *163:4 9.3 
2 *163:4 *632:A1 11.8893 
3 *163:4 *620:A 21.0143 
*END

*D_NET *164 0.00215147
*CONN
*I *642:B1 I *D sky130_fd_sc_hd__a311o_1
*I *763:X O *D sky130_fd_sc_hd__dlygate4sd3_1
*CAP
1 *642:B1 0.000814223
2 *763:X 0.000814223
3 *642:B1 *760:A 2.27416e-05
4 *642:C1 *642:B1 0.000437252
5 *661:A *642:B1 6.30282e-05
*RES
1 *763:X *642:B1 29.3143 
*END

*D_NET *165 0.00138456
*CONN
*I *611:B2 I *D sky130_fd_sc_hd__o22a_1
*I *764:X O *D sky130_fd_sc_hd__dlygate4sd3_1
*CAP
1 *611:B2 0.000475818
2 *764:X 0.000475818
3 *611:B2 *207:27 3.79779e-05
4 *727:A *611:B2 0.000394942
*RES
1 *764:X *611:B2 34.2964 
*END

*D_NET *166 0.00500301
*CONN
*I *675:A1 I *D sky130_fd_sc_hd__mux2_1
*I *768:X O *D sky130_fd_sc_hd__clkbuf_1
*CAP
1 *675:A1 0
2 *768:X 0.00168833
3 *166:14 0.00168833
4 *166:14 *592:B1 0
5 *166:14 *612:A 7.22884e-05
6 *166:14 *616:A1 0
7 *166:14 *617:A1 4.75428e-05
8 *166:14 *202:12 0
9 *166:14 *205:21 0
10 *603:D *166:14 0
11 *605:A *166:14 0
12 *616:B1_N *166:14 0.000575165
13 *619:A *166:14 0.000112945
14 *692:RESET_B *166:14 3.79467e-05
15 *700:D *166:14 9.11671e-05
16 *709:D *166:14 0
17 *713:RESET_B *166:14 5.24274e-05
18 *768:A *166:14 4.01768e-05
19 *85:70 *166:14 0.000258063
20 *107:10 *166:14 0.00014322
21 *127:30 *166:14 0.000176616
22 *127:82 *166:14 1.87955e-05
23 *129:10 *166:14 0
24 *129:40 *166:14 0
25 *151:10 *166:14 0
*RES
1 *768:X *166:14 48.425 
2 *166:14 *675:A1 13.8 
*END

*D_NET *167 0.00295666
*CONN
*I *707:D I *D sky130_fd_sc_hd__dfrtp_1
*I *730:X O *D sky130_fd_sc_hd__dlygate4sd3_1
*CAP
1 *707:D 0.000913519
2 *730:X 0.000913519
3 *584:A2 *707:D 0.000101158
4 *633:A2 *707:D 0.000134447
5 *702:D *707:D 0.000148189
6 *707:RESET_B *707:D 0.000177373
7 *759:A *707:D 0.000268782
8 *764:A *707:D 4.66561e-05
9 *140:14 *707:D 0.000191796
10 *140:40 *707:D 3.70564e-05
11 *159:28 *707:D 2.41665e-05
*RES
1 *730:X *707:D 46.35 
*END

*D_NET *168 0.00122148
*CONN
*I *609:A I *D sky130_fd_sc_hd__inv_2
*I *610:A2 I *D sky130_fd_sc_hd__o21a_1
*I *731:X O *D sky130_fd_sc_hd__dlygate4sd3_1
*CAP
1 *609:A 0.000210838
2 *610:A2 0.000244634
3 *731:X 0
4 *168:4 0.000455472
5 *609:A *580:A 9.86837e-05
6 *82:18 *610:A2 7.70035e-05
7 *85:16 *609:A 2.09722e-05
8 *85:16 *610:A2 2.16315e-05
9 *96:18 *610:A2 9.22507e-05
*RES
1 *731:X *168:4 9.3 
2 *168:4 *610:A2 21.925 
3 *168:4 *609:A 22.4964 
*END

*D_NET *169 0.000517778
*CONN
*I *685:A0 I *D sky130_fd_sc_hd__mux2_1
*I *732:X O *D sky130_fd_sc_hd__dlygate4sd3_1
*CAP
1 *685:A0 0.000209779
2 *732:X 0.000209779
3 *685:A0 *210:14 0
4 *641:A *685:A0 7.03103e-05
5 *129:55 *685:A0 2.79092e-05
*RES
1 *732:X *685:A0 30.8143 
*END

*D_NET *170 0.000759354
*CONN
*I *683:A0 I *D sky130_fd_sc_hd__mux2_1
*I *733:X O *D sky130_fd_sc_hd__dlygate4sd3_1
*CAP
1 *683:A0 0.000154819
2 *733:X 0.000154819
3 *683:A0 *683:A1 0.000185643
4 *683:A0 *733:A 0
5 *653:A *683:A0 0.000112418
6 *683:S *683:A0 9.90367e-05
7 *776:A *683:A0 5.26184e-05
*RES
1 *733:X *683:A0 31.725 
*END

*D_NET *171 8.41812e-05
*CONN
*I *623:B2 I *D sky130_fd_sc_hd__a32o_1
*I *734:X O *D sky130_fd_sc_hd__dlygate4sd3_1
*CAP
1 *623:B2 1.79896e-05
2 *734:X 1.79896e-05
3 *623:B2 *685:A1 1.92905e-05
4 *623:B2 *208:62 2.89114e-05
*RES
1 *734:X *623:B2 19.1357 
*END

*D_NET *172 0.000374663
*CONN
*I *697:D I *D sky130_fd_sc_hd__dfrtp_1
*I *735:X O *D sky130_fd_sc_hd__dlygate4sd3_1
*CAP
1 *697:D 0.000149326
2 *735:X 0.000149326
3 *697:D *209:87 3.67257e-05
4 *735:A *697:D 0
5 *776:A *697:D 3.92854e-05
*RES
1 *735:X *697:D 30.0107 
*END

*D_NET *173 0.000406668
*CONN
*I *677:A0 I *D sky130_fd_sc_hd__mux2_1
*I *736:X O *D sky130_fd_sc_hd__dlygate4sd3_1
*CAP
1 *677:A0 8.72909e-05
2 *736:X 8.72909e-05
3 *677:A0 *677:A1 7.86973e-05
4 *129:80 *677:A0 7.51937e-05
5 *129:86 *677:A0 7.8195e-05
*RES
1 *736:X *677:A0 21.1893 
*END

*D_NET *174 0.00131238
*CONN
*I *635:A I *D sky130_fd_sc_hd__inv_2
*I *737:X O *D sky130_fd_sc_hd__dlygate4sd3_1
*CAP
1 *635:A 0.000245698
2 *737:X 0.000245698
3 *635:A *198:12 0.000291788
4 *673:B *635:A 9.71197e-05
5 *673:C *635:A 0.000156992
6 *691:SET_B *635:A 7.80929e-05
7 *142:62 *635:A 0.000196993
*RES
1 *737:X *635:A 35.6536 
*END

*D_NET *175 0.000596883
*CONN
*I *694:D I *D sky130_fd_sc_hd__dfrtp_1
*I *738:X O *D sky130_fd_sc_hd__dlygate4sd3_1
*CAP
1 *694:D 8.03409e-05
2 *738:X 8.03409e-05
3 *694:D *201:29 0.000102545
4 *617:A2 *694:D 0.00018372
5 *694:CLK *694:D 4.37999e-05
6 *159:28 *694:D 0.000106137
*RES
1 *738:X *694:D 30.7071 
*END

*D_NET *176 0.000323189
*CONN
*I *675:A0 I *D sky130_fd_sc_hd__mux2_1
*I *739:X O *D sky130_fd_sc_hd__dlygate4sd3_1
*CAP
1 *675:A0 0.000107292
2 *739:X 0.000107292
3 *675:A0 *739:A 5.23057e-05
4 *675:S *675:A0 5.62995e-05
*RES
1 *739:X *675:A0 20.7786 
*END

*D_NET *177 0.000441033
*CONN
*I *677:A1 I *D sky130_fd_sc_hd__mux2_1
*I *769:X O *D sky130_fd_sc_hd__clkbuf_1
*CAP
1 *677:A1 0.000141985
2 *769:X 0.000141985
3 *677:A1 *741:A 0
4 *677:A1 *743:A 7.83659e-05
5 *677:A0 *677:A1 7.86973e-05
*RES
1 *769:X *677:A1 29.9929 
*END

*D_NET *178 0.000526216
*CONN
*I *681:A0 I *D sky130_fd_sc_hd__mux2_1
*I *741:X O *D sky130_fd_sc_hd__dlygate4sd3_1
*CAP
1 *681:A0 0.0001889
2 *741:X 0.0001889
3 *681:A0 *681:A1 5.71472e-05
4 *681:S *681:A0 9.12695e-05
5 *689:A1 *681:A0 0
*RES
1 *741:X *681:A0 30.4036 
*END

*D_NET *179 0.000860954
*CONN
*I *687:A0 I *D sky130_fd_sc_hd__mux2_1
*I *742:X O *D sky130_fd_sc_hd__dlygate4sd3_1
*CAP
1 *687:A0 0.000403708
2 *742:X 0.000403708
3 *687:S *687:A0 5.35386e-05
*RES
1 *742:X *687:A0 33.6536 
*END

*D_NET *180 0.000634128
*CONN
*I *689:A0 I *D sky130_fd_sc_hd__mux2_1
*I *743:X O *D sky130_fd_sc_hd__dlygate4sd3_1
*CAP
1 *689:A0 0.00020481
2 *743:X 0.00020481
3 *689:A0 *741:A 7.83659e-05
4 *681:S *689:A0 9.80173e-05
5 *689:A1 *689:A0 0
6 *129:86 *689:A0 4.81257e-05
*RES
1 *743:X *689:A0 30.8143 
*END

*D_NET *181 0.00145188
*CONN
*I *679:A0 I *D sky130_fd_sc_hd__mux2_1
*I *744:X O *D sky130_fd_sc_hd__dlygate4sd3_1
*CAP
1 *679:A0 0.000666516
2 *744:X 0.000666516
3 *680:A *679:A0 0
4 *687:S *679:A0 0.000118851
*RES
1 *744:X *679:A0 39.1536 
*END

*D_NET *182 0.00112099
*CONN
*I *627:B1 I *D sky130_fd_sc_hd__a21oi_1
*I *745:X O *D sky130_fd_sc_hd__dlygate4sd3_1
*CAP
1 *627:B1 0.0003028
2 *745:X 0.0003028
3 *627:B1 *748:A 0
4 *627:B1 *208:10 0
5 *627:A2 *627:B1 3.57366e-05
6 *628:A1 *627:B1 3.69697e-05
7 *628:B1 *627:B1 1.92789e-05
8 *630:B1 *627:B1 0.000266585
9 *695:RESET_B *627:B1 0
10 *696:D *627:B1 0.000156817
*RES
1 *745:X *627:B1 33.6714 
*END

*D_NET *183 0.000396404
*CONN
*I *584:B1 I *D sky130_fd_sc_hd__o21a_1
*I *746:X O *D sky130_fd_sc_hd__dlygate4sd3_1
*CAP
1 *584:B1 0.00013041
2 *746:X 0.00013041
3 *585:B1 *584:B1 7.89362e-05
4 *601:S *584:B1 5.66472e-05
*RES
1 *746:X *584:B1 30.2071 
*END

*D_NET *184 0.00236141
*CONN
*I *617:A1 I *D sky130_fd_sc_hd__a22o_1
*I *613:A1 I *D sky130_fd_sc_hd__a22o_1
*I *747:X O *D sky130_fd_sc_hd__dlygate4sd3_1
*CAP
1 *617:A1 0.000231106
2 *613:A1 0.000213174
3 *747:X 0
4 *184:4 0.00044428
5 *617:A1 *612:A 5.41794e-05
6 *617:A1 *617:B2 4.43157e-05
7 *617:A1 *205:21 5.10822e-05
8 *613:A2 *613:A1 0.000456854
9 *613:B1 *613:A1 0.000232619
10 *617:B1 *617:A1 5.52302e-05
11 *618:A1 *617:A1 6.8646e-06
12 *618:S *613:A1 9.71197e-05
13 *619:A *613:A1 9.60875e-05
14 *87:16 *613:A1 0.00026353
15 *159:28 *617:A1 6.74293e-05
16 *166:14 *617:A1 4.75428e-05
*RES
1 *747:X *184:4 9.3 
2 *184:4 *613:A1 16.3179 
3 *184:4 *617:A1 23.0321 
*END

*D_NET *185 0.000934131
*CONN
*I *630:A1 I *D sky130_fd_sc_hd__a21oi_1
*I *748:X O *D sky130_fd_sc_hd__dlygate4sd3_1
*CAP
1 *630:A1 0.000411809
2 *748:X 0.000411809
3 *630:A1 *745:A 3.57405e-05
4 *630:A2 *630:A1 3.6337e-05
5 *749:A *630:A1 3.84349e-05
*RES
1 *748:X *630:A1 32.8679 
*END

*D_NET *186 0.000381072
*CONN
*I *695:D I *D sky130_fd_sc_hd__dfrtp_4
*I *749:X O *D sky130_fd_sc_hd__dlygate4sd3_1
*CAP
1 *695:D 0.000129317
2 *749:X 0.000129317
3 *695:D *745:A 0
4 *630:A2 *695:D 0.000122438
*RES
1 *749:X *695:D 30.4393 
*END

*D_NET *187 0.00045532
*CONN
*I *613:B2 I *D sky130_fd_sc_hd__a22o_1
*I *750:X O *D sky130_fd_sc_hd__dlygate4sd3_1
*CAP
1 *613:B2 0.000129941
2 *750:X 0.000129941
3 *613:B2 *202:34 0.000101227
4 *613:B1 *613:B2 9.42108e-05
*RES
1 *750:X *613:B2 30.3143 
*END

*D_NET *188 0.00800935
*CONN
*I *679:A1 I *D sky130_fd_sc_hd__mux2_1
*I *770:X O *D sky130_fd_sc_hd__buf_1
*CAP
1 *679:A1 0.000892705
2 *770:X 0.00160513
3 *188:26 0.00249783
4 *188:26 *760:A 0.000183713
5 *188:26 *203:10 1.66856e-05
6 *671:A *188:26 5.33005e-05
7 *698:CLK *679:A1 7.43578e-06
8 *698:CLK *188:26 0.000374759
9 *703:CLK *188:26 0.000286795
10 *705:D *188:26 0.00010462
11 *775:A *188:26 8.16036e-05
12 *781:A *188:26 0.000153054
13 *127:82 *679:A1 2.42516e-05
14 *129:20 *679:A1 0.000911312
15 *161:14 *188:26 0.000816152
*RES
1 *770:X *188:26 49.8714 
2 *188:26 *679:A1 25.05 
*END

*D_NET *189 0.000394899
*CONN
*I *595:A1 I *D sky130_fd_sc_hd__mux2_1
*I *752:X O *D sky130_fd_sc_hd__dlygate4sd3_1
*CAP
1 *595:A1 0.000141621
2 *752:X 0.000141621
3 *595:A0 *595:A1 5.4959e-05
4 *96:18 *595:A1 5.66971e-05
*RES
1 *752:X *595:A1 21.6 
*END

*D_NET *190 0.000363627
*CONN
*I *598:A1 I *D sky130_fd_sc_hd__mux2_1
*I *753:X O *D sky130_fd_sc_hd__dlygate4sd3_1
*CAP
1 *598:A1 4.54546e-05
2 *753:X 4.54546e-05
3 *598:S *598:A1 2.28499e-05
4 *601:A0 *598:A1 6.05161e-06
5 *753:A *598:A1 5.52302e-05
6 *82:126 *598:A1 0.000188586
*RES
1 *753:X *598:A1 20.3679 
*END

*D_NET *191 0.000739146
*CONN
*I *592:B1 I *D sky130_fd_sc_hd__o31a_1
*I *754:X O *D sky130_fd_sc_hd__dlygate4sd3_1
*CAP
1 *592:B1 0.000135428
2 *754:X 0.000135428
3 *592:A2 *592:B1 0.000230482
4 *592:A3 *592:B1 0.000228558
5 *603:D *592:B1 9.25014e-06
6 *139:10 *592:B1 0
7 *166:14 *592:B1 0
*RES
1 *754:X *592:B1 31.4214 
*END

*D_NET *192 0.00125892
*CONN
*I *601:A1 I *D sky130_fd_sc_hd__mux2_1
*I *755:X O *D sky130_fd_sc_hd__dlygate4sd3_1
*CAP
1 *601:A1 0.000397543
2 *755:X 0.000397543
3 *601:S *601:A1 0.000111616
4 *127:43 *601:A1 0.000266363
5 *140:77 *601:A1 8.58537e-05
*RES
1 *755:X *601:A1 34.8857 
*END

*D_NET *193 0.000440631
*CONN
*I *589:A1 I *D sky130_fd_sc_hd__mux2_1
*I *756:X O *D sky130_fd_sc_hd__dlygate4sd3_1
*CAP
1 *589:A1 0.000177419
2 *756:X 0.000177419
3 *637:A *589:A1 2.95726e-05
4 *637:B *589:A1 7.43578e-06
5 *92:20 *589:A1 4.87854e-05
*RES
1 *756:X *589:A1 21.6 
*END

*D_NET *194 0.000476961
*CONN
*I *610:A1 I *D sky130_fd_sc_hd__o21a_1
*I *757:X O *D sky130_fd_sc_hd__dlygate4sd3_1
*CAP
1 *610:A1 0.000183352
2 *757:X 0.000183352
3 *610:A1 *580:A 8.11114e-05
4 *643:B *610:A1 2.50137e-05
5 *82:18 *610:A1 4.13122e-06
*RES
1 *757:X *610:A1 30.4393 
*END

*D_NET *195 0.000428873
*CONN
*I *607:A0 I *D sky130_fd_sc_hd__mux2_1
*I *758:X O *D sky130_fd_sc_hd__dlygate4sd3_1
*CAP
1 *607:A0 0.000154434
2 *758:X 0.000154434
3 *82:46 *607:A0 5.50052e-05
4 *82:55 *607:A0 6.49987e-05
*RES
1 *758:X *607:A0 21.6 
*END

*D_NET *196 0.00043617
*CONN
*I *681:A1 I *D sky130_fd_sc_hd__mux2_1
*I *771:X O *D sky130_fd_sc_hd__clkbuf_1
*CAP
1 *681:A1 0.000131603
2 *771:X 0.000131603
3 *681:A0 *681:A1 5.71472e-05
4 *681:S *681:A1 0
5 *780:A *681:A1 0.000115817
*RES
1 *771:X *681:A1 30.4214 
*END

*D_NET *197 0.0031918
*CONN
*I *683:A1 I *D sky130_fd_sc_hd__mux2_1
*I *772:X O *D sky130_fd_sc_hd__clkbuf_1
*CAP
1 *683:A1 0.00132106
2 *772:X 0.00132106
3 *683:A1 *745:A 0
4 *630:A2 *683:A1 1.92789e-05
5 *630:B1 *683:A1 9.80028e-05
6 *653:A *683:A1 4.88637e-05
7 *683:A0 *683:A1 0.000185643
8 *695:CLK *683:A1 3.57366e-05
9 *697:RESET_B *683:A1 0.000142856
10 *749:A *683:A1 0
11 *772:A *683:A1 1.92905e-05
12 *776:A *683:A1 0
*RES
1 *772:X *683:A1 48.1357 
*END

*D_NET *198 0.00831572
*CONN
*I *685:A1 I *D sky130_fd_sc_hd__mux2_1
*I *773:X O *D sky130_fd_sc_hd__buf_1
*CAP
1 *685:A1 0.000492829
2 *773:X 0.000220101
3 *198:12 0.00240672
4 *198:8 0.00213399
5 *685:A1 *208:62 0.00028323
6 *198:12 *642:A1 0.000314762
7 *198:12 *673:A 3.79467e-05
8 *198:12 *203:10 0
9 *198:12 *207:27 0.000182604
10 *198:12 *208:52 0.000121573
11 *198:12 *209:10 2.47093e-05
12 *198:12 *220:47 2.72545e-05
13 *623:B1 *685:A1 0.000102586
14 *623:B2 *685:A1 1.92905e-05
15 *635:A *198:12 0.000291788
16 *636:B1 *198:12 0.000707
17 *645:A *198:12 3.9733e-05
18 *673:C *198:12 0
19 *685:S *685:A1 5.71472e-05
20 *691:D *198:12 7.18509e-05
21 *694:RESET_B *198:12 9.01238e-05
22 *698:SET_B *198:12 8.91726e-05
23 *701:RESET_B *198:12 0
24 *706:D *198:12 0.00027029
25 *735:A *198:12 9.25014e-06
26 *773:A *198:8 1.92905e-05
27 *3:21 *198:12 2.34423e-05
28 *91:27 *198:12 0
29 *126:16 *198:12 0
30 *126:18 *198:12 0
31 *126:26 *198:12 0
32 *126:30 *198:12 0
33 *126:38 *198:12 0
34 *142:12 *198:12 4.24858e-05
35 *142:62 *198:12 1.13495e-05
36 *143:10 *198:12 1.56132e-05
37 *143:14 *198:12 7.49239e-05
38 *143:45 *198:12 0.000134667
*RES
1 *773:X *198:8 16.3893 
2 *198:8 *198:12 48.3393 
3 *198:12 *685:A1 18.3893 
*END

*D_NET *199 0.000706495
*CONN
*I *687:A1 I *D sky130_fd_sc_hd__mux2_1
*I *774:X O *D sky130_fd_sc_hd__clkbuf_1
*CAP
1 *687:A1 0.000353247
2 *774:X 0.000353247
*RES
1 *774:X *687:A1 32.2429 
*END

*D_NET *200 0.000742532
*CONN
*I *576:A I *D sky130_fd_sc_hd__buf_2
*I *591:A I *D sky130_fd_sc_hd__inv_2
*I *700:Q O *D sky130_fd_sc_hd__dfrtp_1
*CAP
1 *576:A 5.31885e-05
2 *591:A 8.48806e-05
3 *700:Q 0
4 *200:4 0.000138069
5 *591:A *201:68 5.50052e-05
6 *579:C *576:A 2.04681e-05
7 *581:A2 *591:A 9.67754e-05
8 *700:RESET_B *591:A 7.74135e-05
9 *81:8 *576:A 6.05161e-06
10 *81:10 *591:A 0.000121897
11 *85:49 *576:A 5.49995e-05
12 *90:20 *591:A 1.21258e-05
13 *139:10 *591:A 2.16573e-05
*RES
1 *700:Q *200:4 9.3 
2 *200:4 *591:A 20.8893 
3 *200:4 *576:A 10.5679 
*END

*D_NET *201 0.0116569
*CONN
*I *594:A I *D sky130_fd_sc_hd__or3_1
*I *579:B I *D sky130_fd_sc_hd__or3_1
*I *592:A1 I *D sky130_fd_sc_hd__o31a_1
*I *603:B I *D sky130_fd_sc_hd__or4_1
*I *585:A1 I *D sky130_fd_sc_hd__a41o_1
*I *586:A I *D sky130_fd_sc_hd__inv_2
*I *614:A I *D sky130_fd_sc_hd__nor2_1
*I *578:A1 I *D sky130_fd_sc_hd__o21ai_1
*I *582:A I *D sky130_fd_sc_hd__and2_1
*I *617:B2 I *D sky130_fd_sc_hd__a22o_1
*I *701:Q O *D sky130_fd_sc_hd__dfrtp_4
*CAP
1 *594:A 0
2 *579:B 0
3 *592:A1 0.000285448
4 *603:B 0
5 *585:A1 0.000812405
6 *586:A 0.000115792
7 *614:A 0
8 *578:A1 0.000113668
9 *582:A 2.43881e-05
10 *617:B2 6.86171e-05
11 *701:Q 0.000822124
12 *201:110 0.000319867
13 *201:91 0.00122472
14 *201:89 0.000452165
15 *201:72 0.000251376
16 *201:68 0.00023343
17 *201:50 0.000217486
18 *201:42 0.000416411
19 *201:29 0.000505774
20 *201:12 0.00123165
21 *578:A1 *202:60 0.000138432
22 *578:A1 *202:71 0.000217339
23 *582:A *612:B_N 9.58689e-05
24 *586:A *579:A 5.59981e-05
25 *201:29 *612:B_N 1.50223e-05
26 *201:29 *636:A1 0
27 *201:42 *612:B_N 1.46689e-05
28 *201:50 *202:71 2.38501e-05
29 *201:72 *579:A 7.47942e-05
30 *201:110 *603:A 7.83659e-05
31 *581:A2 *201:68 5.16995e-05
32 *582:B *201:42 4.49682e-05
33 *582:B *201:68 2.06251e-05
34 *591:A *201:68 5.50052e-05
35 *592:A2 *592:A1 0.000442628
36 *592:A3 *592:A1 5.7661e-06
37 *593:A4 *592:A1 1.13127e-05
38 *594:B *201:68 0.000180207
39 *594:C *201:68 5.49995e-05
40 *598:S *585:A1 8.05191e-05
41 *606:B *586:A 0.000162366
42 *614:B *201:50 8.95839e-06
43 *615:B *201:50 0.000180195
44 *617:A1 *617:B2 4.43157e-05
45 *617:A2 *617:B2 5.52238e-05
46 *617:A2 *201:29 0
47 *617:B1 *617:B2 5.52302e-05
48 *618:A1 *201:29 0
49 *656:A *201:68 9.58689e-05
50 *656:A *201:89 3.85988e-05
51 *694:D *201:29 0.000102545
52 *700:CLK *585:A1 0.000152823
53 *701:D *201:12 0.000107267
54 *730:A *201:29 1.00887e-05
55 *730:A *201:42 1.73698e-05
56 *730:A *201:50 4.58194e-05
57 *81:10 *201:68 1.12578e-05
58 *81:12 *201:68 5.40984e-05
59 *81:29 *201:50 9.85599e-06
60 *81:31 *201:50 1.62025e-05
61 *81:69 *585:A1 1.0484e-05
62 *85:49 *586:A 0.000234621
63 *85:49 *201:91 0.00022954
64 *85:70 *578:A1 9.58632e-05
65 *87:12 *582:A 5.23822e-05
66 *87:12 *201:29 6.33112e-05
67 *90:20 *201:68 4.37451e-05
68 *91:10 *201:72 9.15842e-06
69 *91:27 *201:72 0.000135573
70 *91:27 *201:89 0.000125595
71 *94:23 *592:A1 3.57366e-05
72 *94:23 *201:110 7.83659e-05
73 *110:12 *201:12 0
74 *126:56 *201:12 0
75 *139:10 *201:42 0.000146261
76 *139:10 *201:68 0.000182316
77 *159:28 *617:B2 0.000261346
78 *159:28 *201:12 4.46186e-06
79 *159:28 *201:29 2.26424e-05
*RES
1 *701:Q *201:12 24.1036 
2 *201:12 *617:B2 16.4071 
3 *201:12 *201:29 5.64286 
4 *201:29 *582:A 14.7464 
5 *201:29 *201:42 3.08929 
6 *201:42 *201:50 7.53571 
7 *201:50 *578:A1 12.7107 
8 *201:50 *614:A 9.3 
9 *201:42 *201:68 10.0536 
10 *201:68 *201:72 6.44643 
11 *201:72 *586:A 17.2464 
12 *201:72 *201:89 6.14286 
13 *201:89 *201:91 4.64286 
14 *201:91 *585:A1 28.0857 
15 *201:91 *201:110 10.0357 
16 *201:110 *603:B 9.3 
17 *201:110 *592:A1 15.1036 
18 *201:89 *579:B 9.3 
19 *201:68 *594:A 9.3 
*END

*D_NET *202 0.0139983
*CONN
*I *603:A I *D sky130_fd_sc_hd__or4_1
*I *579:A I *D sky130_fd_sc_hd__or3_1
*I *587:D_N I *D sky130_fd_sc_hd__or4b_1
*I *636:A1 I *D sky130_fd_sc_hd__a32o_1
*I *578:B1 I *D sky130_fd_sc_hd__o21ai_1
*I *597:A I *D sky130_fd_sc_hd__or4_1
*I *600:A I *D sky130_fd_sc_hd__or4_1
*I *750:A I *D sky130_fd_sc_hd__dlygate4sd3_1
*I *583:A I *D sky130_fd_sc_hd__nand2_1
*I *702:Q O *D sky130_fd_sc_hd__dfrtp_4
*CAP
1 *603:A 0.000295339
2 *579:A 0.00019519
3 *587:D_N 0.000761966
4 *636:A1 0.000302109
5 *578:B1 0
6 *597:A 0.000111981
7 *600:A 6.29609e-05
8 *750:A 9.977e-05
9 *583:A 0
10 *702:Q 0.000962163
11 *202:79 0.00112616
12 *202:77 0.000544322
13 *202:71 0.000671536
14 *202:60 0.000143946
15 *202:45 0.000195
16 *202:34 0.000470806
17 *202:21 0.000665774
18 *202:12 0.00114854
19 *587:D_N *580:C 5.46383e-06
20 *587:D_N *587:C 2.24804e-05
21 *636:A1 *612:B_N 0.000313728
22 *636:A1 *636:A2 1.74352e-05
23 *202:34 *633:A1 4.15914e-05
24 *578:A1 *202:60 0.000138432
25 *578:A1 *202:71 0.000217339
26 *579:C *579:A 0.000100258
27 *581:A1 *603:A 0.000137102
28 *581:A1 *202:71 9.15842e-06
29 *582:B *636:A1 1.25366e-05
30 *582:B *202:79 3.3605e-05
31 *583:B *202:12 5.80706e-06
32 *583:B *202:21 0.000198738
33 *583:B *202:34 5.1002e-05
34 *584:A1 *600:A 0.000141729
35 *586:A *579:A 5.59981e-05
36 *592:A2 *603:A 5.52302e-05
37 *592:A3 *603:A 9.90431e-05
38 *600:C *600:A 3.25642e-05
39 *600:C *202:45 5.33005e-05
40 *603:D *603:A 0.000264531
41 *611:A2 *587:D_N 0.000558257
42 *611:B1 *587:D_N 3.15815e-05
43 *613:B2 *202:34 0.000101227
44 *615:B *636:A1 0.000120368
45 *616:B1_N *202:12 0
46 *617:A2 *636:A1 9.82903e-05
47 *618:S *597:A 5.51716e-05
48 *618:S *202:34 0.000226323
49 *619:A *202:45 5.50052e-05
50 *619:A *202:60 8.52379e-05
51 *636:A3 *636:A1 0.000205412
52 *636:B1 *636:A1 0
53 *656:A *579:A 0.00012249
54 *700:D *597:A 0.000146254
55 *702:CLK *202:21 0.000149959
56 *702:D *202:12 1.26059e-05
57 *730:A *587:D_N 6.70939e-05
58 *730:A *202:71 4.27842e-06
59 *730:A *202:77 6.50098e-05
60 *777:A *202:12 1.72894e-05
61 *81:12 *579:A 1.59099e-05
62 *81:12 *202:79 8.67814e-06
63 *81:29 *202:77 0.00022367
64 *81:31 *202:60 8.34321e-05
65 *81:31 *202:71 0.000272338
66 *81:31 *202:77 5.50052e-05
67 *81:33 *202:45 4.08637e-05
68 *81:33 *202:60 0.000183711
69 *81:69 *597:A 0.000147921
70 *85:49 *579:A 1.35465e-05
71 *85:70 *600:A 1.24368e-05
72 *85:70 *202:45 1.38323e-05
73 *85:70 *202:60 1.52217e-05
74 *86:10 *597:A 2.59355e-05
75 *88:10 *202:12 0.000146724
76 *90:20 *579:A 3.11713e-05
77 *91:10 *579:A 3.34634e-05
78 *91:10 *587:D_N 7.34285e-06
79 *91:10 *202:79 2.53112e-06
80 *94:23 *603:A 0.000304023
81 *127:30 *597:A 1.24368e-05
82 *139:10 *603:A 3.34634e-05
83 *139:10 *202:71 1.2294e-05
84 *159:28 *636:A1 1.32552e-05
85 *159:28 *750:A 0.000225616
86 *166:14 *202:12 0
87 *201:29 *636:A1 0
88 *201:50 *202:71 2.38501e-05
89 *201:72 *579:A 7.47942e-05
90 *201:110 *603:A 7.83659e-05
*RES
1 *702:Q *202:12 25.9607 
2 *202:12 *583:A 13.8 
3 *202:12 *202:21 4.67857 
4 *202:21 *750:A 15.9786 
5 *202:21 *202:34 12.2143 
6 *202:34 *600:A 11.0857 
7 *202:34 *202:45 0.946429 
8 *202:45 *597:A 21.3893 
9 *202:45 *202:60 2.58929 
10 *202:60 *578:B1 9.3 
11 *202:60 *202:71 7.82143 
12 *202:71 *202:77 12.8214 
13 *202:77 *202:79 1.33929 
14 *202:79 *636:A1 21.1929 
15 *202:79 *587:D_N 24.2286 
16 *202:77 *579:A 19.0679 
17 *202:71 *603:A 22.2107 
*END

*D_NET *203 0.0014843
*CONN
*I *737:A I *D sky130_fd_sc_hd__dlygate4sd3_1
*I *577:A I *D sky130_fd_sc_hd__buf_2
*I *698:Q O *D sky130_fd_sc_hd__dfstp_1
*CAP
1 *737:A 8.72821e-05
2 *577:A 0.000239188
3 *698:Q 0.000257937
4 *203:10 0.000584406
5 *203:10 *673:A 3.79467e-05
6 *642:C1 *203:10 0
7 *673:B *737:A 6.19616e-05
8 *673:C *577:A 0.000131409
9 *691:SET_B *577:A 6.74815e-05
10 *82:83 *577:A 0
11 *188:26 *203:10 1.66856e-05
12 *198:12 *203:10 0
*RES
1 *698:Q *203:10 18.2018 
2 *203:10 *577:A 18.7821 
3 *203:10 *737:A 15.5679 
*END

*D_NET *204 0.00151724
*CONN
*I *731:A I *D sky130_fd_sc_hd__dlygate4sd3_1
*I *580:C I *D sky130_fd_sc_hd__or3_2
*I *587:C I *D sky130_fd_sc_hd__or4b_1
*I *691:Q O *D sky130_fd_sc_hd__dfstp_1
*CAP
1 *731:A 6.85185e-05
2 *580:C 0.000161322
3 *587:C 5.88118e-05
4 *691:Q 2.36249e-05
5 *204:12 0.000338881
6 *204:6 0.000210891
7 *587:D_N *580:C 5.46383e-06
8 *587:D_N *587:C 2.24804e-05
9 *610:B1 *580:C 5.49489e-05
10 *611:A2 *587:C 9.83388e-05
11 *643:B *204:12 4.13122e-06
12 *712:CLK *580:C 8.23811e-05
13 *712:CLK *587:C 0.000228665
14 *82:18 *204:12 6.31564e-05
15 *96:18 *731:A 9.56283e-05
*RES
1 *691:Q *204:6 9.63036 
2 *204:6 *204:12 10.9464 
3 *204:12 *587:C 11.4786 
4 *204:12 *580:C 12.3357 
5 *204:6 *731:A 11.1036 
*END

*D_NET *205 0.00642394
*CONN
*I *747:A I *D sky130_fd_sc_hd__dlygate4sd3_1
*I *636:A2 I *D sky130_fd_sc_hd__a32o_1
*I *612:A I *D sky130_fd_sc_hd__or2b_1
*I *618:A0 I *D sky130_fd_sc_hd__mux2_1
*I *633:A1 I *D sky130_fd_sc_hd__a21o_1
*I *616:A1 I *D sky130_fd_sc_hd__a21boi_1
*I *692:Q O *D sky130_fd_sc_hd__dfrtp_2
*CAP
1 *747:A 0
2 *636:A2 0.000129624
3 *612:A 0.000123526
4 *618:A0 0
5 *633:A1 0.000413161
6 *616:A1 0.000228044
7 *692:Q 0
8 *205:66 0.000177493
9 *205:51 0.000268038
10 *205:23 0.000697367
11 *205:21 0.000543781
12 *205:6 0.000390977
13 *583:B *633:A1 7.83587e-05
14 *616:B1_N *616:A1 1.98839e-05
15 *617:A1 *612:A 5.41794e-05
16 *617:A1 *205:21 5.10822e-05
17 *618:A1 *612:A 0.00018372
18 *618:A1 *205:21 0.000115474
19 *618:A1 *205:23 0.000392026
20 *618:A1 *205:51 5.33005e-05
21 *636:A1 *636:A2 1.74352e-05
22 *636:A3 *636:A2 0.000233729
23 *636:A3 *205:66 8.57023e-05
24 *692:RESET_B *616:A1 0.000150119
25 *738:A *636:A2 5.52302e-05
26 *87:12 *612:A 0
27 *87:16 *612:A 0.000227532
28 *87:16 *205:66 5.71472e-05
29 *110:12 *616:A1 0.000453359
30 *110:12 *205:21 0.000149911
31 *159:28 *633:A1 0.000513257
32 *159:28 *636:A2 0.000446603
33 *166:14 *612:A 7.22884e-05
34 *166:14 *616:A1 0
35 *166:14 *205:21 0
36 *202:34 *633:A1 4.15914e-05
*RES
1 *692:Q *205:6 13.8 
2 *205:6 *616:A1 19.6571 
3 *205:6 *205:21 7.96429 
4 *205:21 *205:23 3.82143 
5 *205:23 *633:A1 25.7821 
6 *205:23 *618:A0 9.3 
7 *205:21 *205:51 1.67857 
8 *205:51 *612:A 22.425 
9 *205:51 *205:66 1.35714 
10 *205:66 *636:A2 14.7821 
11 *205:66 *747:A 9.3 
*END

*D_NET *206 0.00686329
*CONN
*I *751:A I *D sky130_fd_sc_hd__dlygate4sd3_1
*I *580:B I *D sky130_fd_sc_hd__or3_2
*I *587:B I *D sky130_fd_sc_hd__or4b_1
*I *612:B_N I *D sky130_fd_sc_hd__or2b_1
*I *693:Q O *D sky130_fd_sc_hd__dfrtp_1
*CAP
1 *751:A 0
2 *580:B 0.000362563
3 *587:B 0
4 *612:B_N 0.000849527
5 *693:Q 0.000556143
6 *206:37 0.000548263
7 *206:16 0.00118084
8 *206:12 0.000701759
9 *612:B_N *636:B2 2.89016e-05
10 *612:B_N *207:14 0.000134471
11 *206:37 *207:49 0.000170893
12 *582:A *612:B_N 9.58689e-05
13 *582:B *612:B_N 9.15842e-06
14 *636:A1 *612:B_N 0.000313728
15 *636:A3 *612:B_N 7.32955e-05
16 *636:B1 *612:B_N 1.98828e-05
17 *643:A *206:16 0
18 *643:B *206:12 1.00399e-05
19 *693:D *206:12 0.00012426
20 *693:RESET_B *206:12 7.16484e-05
21 *712:CLK *580:B 0.000200507
22 *725:A *612:B_N 0.000358374
23 *727:A *612:B_N 0.000126109
24 *730:A *612:B_N 0.000119251
25 *764:A *612:B_N 0.000100165
26 *24:6 *580:B 0.000272033
27 *87:12 *612:B_N 2.19818e-05
28 *126:30 *206:12 0
29 *126:30 *206:37 0.000377717
30 *159:28 *612:B_N 6.2155e-06
31 *201:29 *612:B_N 1.50223e-05
32 *201:42 *612:B_N 1.46689e-05
*RES
1 *693:Q *206:12 26.8179 
2 *206:12 *206:16 2.5 
3 *206:16 *612:B_N 33.6393 
4 *206:16 *206:37 13.9821 
5 *206:37 *587:B 9.3 
6 *206:37 *580:B 15.3357 
7 *206:12 *751:A 9.3 
*END

*D_NET *207 0.00457553
*CONN
*I *580:A I *D sky130_fd_sc_hd__or3_2
*I *757:A I *D sky130_fd_sc_hd__dlygate4sd3_1
*I *587:A I *D sky130_fd_sc_hd__or4b_1
*I *611:A1 I *D sky130_fd_sc_hd__o22a_1
*I *636:B2 I *D sky130_fd_sc_hd__a32o_1
*I *694:Q O *D sky130_fd_sc_hd__dfrtp_1
*CAP
1 *580:A 0.000194792
2 *757:A 0
3 *587:A 0
4 *611:A1 0
5 *636:B2 1.27684e-05
6 *694:Q 0.000239824
7 *207:49 0.000481236
8 *207:34 0.000380757
9 *207:27 0.00031226
10 *207:14 0.000470539
11 *609:A *580:A 9.86837e-05
12 *610:A1 *580:A 8.11114e-05
13 *611:A2 *207:34 0.00034718
14 *611:A2 *207:49 5.19439e-05
15 *611:B1 *207:34 6.05161e-06
16 *611:B2 *207:27 3.79779e-05
17 *612:B_N *636:B2 2.89016e-05
18 *612:B_N *207:14 0.000134471
19 *617:A2 *207:27 0
20 *636:B1 *636:B2 3.18676e-05
21 *636:B1 *207:14 6.87574e-05
22 *694:CLK *207:14 2.89114e-05
23 *694:RESET_B *207:14 2.49484e-05
24 *712:CLK *207:34 0.000137639
25 *712:CLK *207:49 5.33005e-05
26 *24:6 *207:34 0.000101323
27 *106:8 *580:A 0.000302986
28 *106:8 *207:49 5.33005e-05
29 *126:30 *207:14 0.00027338
30 *142:12 *207:14 0.000223592
31 *159:28 *207:14 4.35336e-05
32 *198:12 *207:27 0.000182604
33 *206:37 *207:49 0.000170893
*RES
1 *694:Q *207:14 25.3 
2 *207:14 *636:B2 9.83571 
3 *207:14 *207:27 13.6786 
4 *207:27 *611:A1 9.3 
5 *207:27 *207:34 3.41071 
6 *207:34 *587:A 9.3 
7 *207:34 *207:49 14.375 
8 *207:49 *757:A 9.3 
9 *207:49 *580:A 23.675 
*END

*D_NET *208 0.0107362
*CONN
*I *748:A I *D sky130_fd_sc_hd__dlygate4sd3_1
*I *627:A1 I *D sky130_fd_sc_hd__a21oi_1
*I *629:A I *D sky130_fd_sc_hd__nor2_1
*I *624:C I *D sky130_fd_sc_hd__nand3_1
*I *626:A2 I *D sky130_fd_sc_hd__a21bo_1
*I *644:C I *D sky130_fd_sc_hd__and4_1
*I *623:A2 I *D sky130_fd_sc_hd__a32o_1
*I *640:S0 I *D sky130_fd_sc_hd__mux4_1
*I *638:S0 I *D sky130_fd_sc_hd__mux4_1
*I *695:Q O *D sky130_fd_sc_hd__dfrtp_4
*CAP
1 *748:A 0.000122542
2 *627:A1 4.09299e-05
3 *629:A 7.66658e-05
4 *624:C 0
5 *626:A2 0
6 *644:C 0
7 *623:A2 2.23854e-05
8 *640:S0 6.3806e-05
9 *638:S0 0.000552694
10 *695:Q 3.72704e-05
11 *208:62 0.0014759
12 *208:52 0.000973725
13 *208:44 0.00030706
14 *208:32 0.000330226
15 *208:20 0.000345709
16 *208:14 0.000494684
17 *208:10 0.00032875
18 *208:8 0.000260219
19 *623:A2 *220:32 0
20 *629:A *622:A 0
21 *629:A *220:81 0.000177796
22 *638:S0 *638:A0 9.74358e-05
23 *638:S0 *638:A3 0.000106127
24 *638:S0 *640:A2 0.000220824
25 *640:S0 *209:87 5.33005e-05
26 *208:20 *220:12 0
27 *208:32 *624:B 0.00018476
28 *208:32 *220:32 0.000107761
29 *208:32 *220:41 0
30 *208:44 *624:A 0.000277328
31 *208:44 *624:B 4.33899e-05
32 *208:44 *644:D 5.33005e-05
33 *208:44 *209:27 0.000240059
34 *208:44 *209:31 9.83442e-05
35 *208:44 *220:32 8.84211e-05
36 *208:52 *642:A1 1.02504e-05
37 *208:52 *220:41 6.05161e-06
38 *208:52 *220:47 0.000123288
39 *623:B1 *208:52 1.21258e-05
40 *623:B1 *208:62 4.04388e-05
41 *623:B2 *208:62 2.89114e-05
42 *625:A2 *208:32 3.95095e-05
43 *625:B1_N *208:14 0
44 *627:A2 *627:A1 5.52302e-05
45 *627:A2 *208:10 3.34687e-05
46 *627:A2 *208:14 1.02504e-05
47 *627:B1 *748:A 0
48 *627:B1 *208:10 0
49 *628:A2 *208:32 5.75048e-06
50 *630:B1 *208:14 0
51 *634:A2 *208:20 0.00056244
52 *641:A *640:S0 0.000129944
53 *641:A *208:62 0.000103974
54 *651:A *629:A 4.50908e-05
55 *652:A *208:14 0.000139158
56 *685:A1 *208:62 0.00028323
57 *685:S *208:62 1.69961e-05
58 *686:A *638:S0 0.000134385
59 *686:A *208:62 0.000356028
60 *695:RESET_B *208:10 6.8646e-06
61 *695:RESET_B *208:14 9.88136e-05
62 *721:CLK *638:S0 4.82947e-05
63 *114:6 *208:20 9.87672e-05
64 *126:121 *208:14 3.23542e-05
65 *126:121 *208:20 0.000398313
66 *129:55 *208:62 7.77751e-05
67 *141:38 *638:S0 0.000255132
68 *141:55 *638:S0 6.52971e-06
69 *143:45 *208:44 7.8327e-05
70 *151:10 *640:S0 8.98585e-05
71 *151:10 *208:62 0.000105689
72 *198:12 *208:52 0.000121573
*RES
1 *695:Q *208:8 14.3357 
2 *208:8 *208:10 1.94643 
3 *208:10 *208:14 4 
4 *208:14 *208:20 12.7321 
5 *208:20 *208:32 12.1964 
6 *208:32 *208:44 15.7321 
7 *208:44 *208:52 11.1786 
8 *208:52 *208:62 18.8393 
9 *208:62 *638:S0 32.6929 
10 *208:62 *640:S0 15.675 
11 *208:52 *623:A2 9.72857 
12 *208:44 *644:C 9.3 
13 *208:32 *626:A2 9.3 
14 *208:20 *624:C 9.3 
15 *208:14 *629:A 16.4964 
16 *208:10 *627:A1 14.3357 
17 *208:8 *748:A 16.05 
*END

*D_NET *209 0.00744257
*CONN
*I *640:S1 I *D sky130_fd_sc_hd__mux4_1
*I *638:S1 I *D sky130_fd_sc_hd__mux4_1
*I *623:A1 I *D sky130_fd_sc_hd__a32o_1
*I *745:A I *D sky130_fd_sc_hd__dlygate4sd3_1
*I *624:B I *D sky130_fd_sc_hd__nand3_1
*I *626:A1 I *D sky130_fd_sc_hd__a21bo_1
*I *644:B I *D sky130_fd_sc_hd__and4_1
*I *696:Q O *D sky130_fd_sc_hd__dfrtp_4
*CAP
1 *640:S1 0.000224559
2 *638:S1 0.000323727
3 *623:A1 0
4 *745:A 0.000511408
5 *624:B 0.000166552
6 *626:A1 0
7 *644:B 0
8 *696:Q 4.80934e-05
9 *209:87 0.00127517
10 *209:31 0.000207906
11 *209:27 0.000879239
12 *209:16 0.000431882
13 *209:10 0.000229008
14 *209:8 0.000898579
15 *624:B *220:32 8.9224e-06
16 *640:S1 *638:A1 3.14963e-05
17 *640:S1 *640:A2 2.87565e-05
18 *640:S1 *640:A3 4.70111e-05
19 *209:10 *220:47 3.51442e-05
20 *209:16 *624:A 1.55885e-05
21 *209:16 *644:D 1.24368e-05
22 *209:16 *220:47 0.000100831
23 *209:27 *624:A 1.74352e-05
24 *209:27 *644:D 8.17274e-05
25 *209:87 *640:A0 0.000147412
26 *209:87 *210:10 0.000314527
27 *623:B1 *745:A 4.75956e-06
28 *623:B1 *209:27 3.47641e-06
29 *630:A1 *745:A 3.57405e-05
30 *630:A2 *745:A 0
31 *640:S0 *209:87 5.33005e-05
32 *641:A *640:S1 1.40961e-05
33 *641:A *209:87 4.61529e-05
34 *683:A1 *745:A 0
35 *695:CLK *745:A 5.80217e-05
36 *695:D *745:A 0
37 *697:CLK *209:87 9.09605e-05
38 *697:D *209:87 3.67257e-05
39 *735:A *745:A 0
40 *735:A *209:8 0
41 *749:A *745:A 9.83442e-05
42 *776:A *209:8 0
43 *776:A *209:10 0
44 *776:A *209:16 0
45 *114:6 *624:B 6.05161e-06
46 *115:8 *745:A 0
47 *126:121 *624:B 3.08664e-05
48 *141:38 *638:S1 0
49 *143:45 *624:B 0
50 *143:45 *745:A 5.25615e-05
51 *143:45 *209:27 4.038e-06
52 *151:10 *638:S1 0.000197291
53 *151:10 *640:S1 8.15095e-05
54 *198:12 *209:10 2.47093e-05
55 *208:32 *624:B 0.00018476
56 *208:44 *624:B 4.33899e-05
57 *208:44 *209:27 0.000240059
58 *208:44 *209:31 9.83442e-05
*RES
1 *696:Q *209:8 14.5321 
2 *209:8 *209:10 2.25 
3 *209:10 *209:16 6.375 
4 *209:16 *644:B 9.3 
5 *209:16 *209:27 9.85714 
6 *209:27 *209:31 5.44643 
7 *209:31 *626:A1 9.3 
8 *209:31 *624:B 22.3357 
9 *209:27 *745:A 23.4964 
10 *209:10 *623:A1 13.8 
11 *209:8 *209:87 23.8214 
12 *209:87 *638:S1 19.55 
13 *209:87 *640:S1 26.7464 
*END

*D_NET *210 0.00405022
*CONN
*I *734:A I *D sky130_fd_sc_hd__dlygate4sd3_1
*I *641:B_N I *D sky130_fd_sc_hd__or2b_1
*I *624:A I *D sky130_fd_sc_hd__nand3_1
*I *644:A I *D sky130_fd_sc_hd__and4_1
*I *639:A I *D sky130_fd_sc_hd__or2_1
*I *697:Q O *D sky130_fd_sc_hd__dfrtp_1
*CAP
1 *734:A 0
2 *641:B_N 0
3 *624:A 0.000145907
4 *644:A 3.12428e-05
5 *639:A 0.000115964
6 *697:Q 0.000331978
7 *210:33 0.000253717
8 *210:18 0.000323785
9 *210:14 0.000252809
10 *210:10 0.000453534
11 *624:A *644:D 2.14757e-05
12 *644:A *644:D 1.97695e-05
13 *641:A *210:18 5.71472e-05
14 *642:A3 *639:A 0.000150043
15 *653:A *210:10 0.000104978
16 *653:A *210:14 0.000105582
17 *685:A0 *210:14 0
18 *776:A *639:A 0.000196309
19 *126:8 *639:A 0
20 *126:12 *210:18 0.000184745
21 *126:12 *210:33 0.000169359
22 *126:121 *624:A 0.000494556
23 *126:121 *210:33 1.24368e-05
24 *129:55 *210:14 0
25 *129:59 *210:10 0
26 *208:44 *624:A 0.000277328
27 *209:16 *624:A 1.55885e-05
28 *209:27 *624:A 1.74352e-05
29 *209:87 *210:10 0.000314527
*RES
1 *697:Q *210:10 19.2643 
2 *210:10 *210:14 7.05357 
3 *210:14 *210:18 3.01786 
4 *210:18 *639:A 21.3893 
5 *210:18 *210:33 1.76786 
6 *210:33 *644:A 10.0321 
7 *210:33 *624:A 15.0857 
8 *210:14 *641:B_N 9.3 
9 *210:10 *734:A 13.8 
*END

*D_NET *211 0.00321228
*CONN
*I *638:A0 I *D sky130_fd_sc_hd__mux4_1
*I *739:A I *D sky130_fd_sc_hd__dlygate4sd3_1
*I *716:Q O *D sky130_fd_sc_hd__dfxtp_1
*CAP
1 *638:A0 0.000667629
2 *739:A 0.000483971
3 *716:Q 0
4 *211:4 0.0011516
5 *638:A0 *638:A2 6.38991e-05
6 *638:A0 *638:A3 0.000116691
7 *638:A0 *640:A2 2.50104e-05
8 *638:S0 *638:A0 9.74358e-05
9 *647:A *638:A0 0.000267669
10 *675:A0 *739:A 5.23057e-05
11 *675:S *739:A 0.000186662
12 *718:D *638:A0 0
13 *151:10 *638:A0 9.94093e-05
*RES
1 *716:Q *211:4 9.3 
2 *211:4 *739:A 17.2643 
3 *211:4 *638:A0 29.9786 
*END

*D_NET *212 0.00275076
*CONN
*I *736:A I *D sky130_fd_sc_hd__dlygate4sd3_1
*I *638:A1 I *D sky130_fd_sc_hd__mux4_1
*I *717:Q O *D sky130_fd_sc_hd__dfxtp_1
*CAP
1 *736:A 0.00023956
2 *638:A1 0.00073099
3 *717:Q 0
4 *212:4 0.000970551
5 *638:A1 *638:A3 5.7639e-05
6 *638:A1 *640:A2 9.77338e-05
7 *736:A *640:A3 7.83485e-05
8 *736:A *743:A 0
9 *640:S1 *638:A1 3.14963e-05
10 *720:CLK *638:A1 9.43968e-05
11 *721:CLK *638:A1 2.09897e-05
12 *129:80 *736:A 5.25774e-05
13 *141:38 *638:A1 7.25296e-05
14 *141:55 *638:A1 0.000303947
*RES
1 *717:Q *212:4 9.3 
2 *212:4 *638:A1 30.1036 
3 *212:4 *736:A 22.7107 
*END

*D_NET *213 0.0012627
*CONN
*I *638:A2 I *D sky130_fd_sc_hd__mux4_1
*I *744:A I *D sky130_fd_sc_hd__dlygate4sd3_1
*I *718:Q O *D sky130_fd_sc_hd__dfxtp_1
*CAP
1 *638:A2 0.000203843
2 *744:A 3.59657e-05
3 *718:Q 0.00016575
4 *213:10 0.000405558
5 *638:A0 *638:A2 6.38991e-05
6 *639:B *638:A2 2.48421e-05
7 *641:A *638:A2 3.34295e-05
8 *647:A *744:A 1.58163e-05
9 *129:55 *638:A2 0
10 *151:10 *638:A2 0.000165078
11 *151:10 *213:10 0.000148514
*RES
1 *718:Q *213:10 16.6929 
2 *213:10 *744:A 14.3357 
3 *213:10 *638:A2 18.4339 
*END

*D_NET *214 0.00339338
*CONN
*I *741:A I *D sky130_fd_sc_hd__dlygate4sd3_1
*I *638:A3 I *D sky130_fd_sc_hd__mux4_1
*I *719:Q O *D sky130_fd_sc_hd__dfxtp_1
*CAP
1 *741:A 0.00050941
2 *638:A3 0.00055726
3 *719:Q 0.000295917
4 *214:8 0.00136259
5 *638:A3 *640:A2 7.55239e-05
6 *741:A *640:A2 0
7 *741:A *743:A 0
8 *638:A0 *638:A3 0.000116691
9 *638:A1 *638:A3 5.7639e-05
10 *638:S0 *638:A3 0.000106127
11 *677:A1 *741:A 0
12 *678:A *741:A 4.71964e-05
13 *689:A0 *741:A 7.83659e-05
14 *689:A1 *741:A 0
15 *690:A *638:A3 0
16 *690:A *741:A 0
17 *780:A *741:A 0.000186662
18 *141:55 *741:A 0
*RES
1 *719:Q *214:8 17.2107 
2 *214:8 *638:A3 23.9071 
3 *214:8 *741:A 23.5857 
*END

*D_NET *215 0.00170083
*CONN
*I *733:A I *D sky130_fd_sc_hd__dlygate4sd3_1
*I *640:A0 I *D sky130_fd_sc_hd__mux4_1
*I *720:Q O *D sky130_fd_sc_hd__dfxtp_1
*CAP
1 *733:A 9.79679e-05
2 *640:A0 0.000499546
3 *720:Q 5.82273e-05
4 *215:8 0.000655741
5 *653:A *640:A0 0
6 *683:A0 *733:A 0
7 *683:S *215:8 9.37652e-05
8 *684:A *215:8 5.52302e-05
9 *776:A *733:A 0
10 *129:59 *640:A0 2.34204e-05
11 *129:80 *640:A0 3.98131e-05
12 *129:80 *733:A 2.97074e-05
13 *209:87 *640:A0 0.000147412
*RES
1 *720:Q *215:8 15.1571 
2 *215:8 *640:A0 21.425 
3 *215:8 *733:A 15.7464 
*END

*D_NET *216 0.000957431
*CONN
*I *640:A1 I *D sky130_fd_sc_hd__mux4_1
*I *732:A I *D sky130_fd_sc_hd__dlygate4sd3_1
*I *721:Q O *D sky130_fd_sc_hd__dfxtp_1
*CAP
1 *640:A1 0.00010441
2 *732:A 0.000236408
3 *721:Q 4.31754e-05
4 *216:8 0.000383993
5 *641:A *640:A1 0
6 *641:A *732:A 0.000100625
7 *686:A *216:8 1.92905e-05
8 *129:55 *732:A 6.95299e-05
9 *129:59 *640:A1 0
10 *129:59 *732:A 0
*RES
1 *721:Q *216:8 14.3357 
2 *216:8 *732:A 18.7286 
3 *216:8 *640:A1 15.4429 
*END

*D_NET *217 0.00241278
*CONN
*I *640:A2 I *D sky130_fd_sc_hd__mux4_1
*I *742:A I *D sky130_fd_sc_hd__dlygate4sd3_1
*I *722:Q O *D sky130_fd_sc_hd__dfxtp_1
*CAP
1 *640:A2 0.000671235
2 *742:A 0
3 *722:Q 0.000180065
4 *217:12 0.0008513
5 *638:A0 *640:A2 2.50104e-05
6 *638:A1 *640:A2 9.77338e-05
7 *638:A3 *640:A2 7.55239e-05
8 *638:S0 *640:A2 0.000220824
9 *640:S1 *640:A2 2.87565e-05
10 *641:A *640:A2 0.000127339
11 *741:A *640:A2 0
12 *141:38 *640:A2 8.75335e-06
13 *141:55 *640:A2 0.000126235
*RES
1 *722:Q *217:12 20.8893 
2 *217:12 *742:A 9.3 
3 *217:12 *640:A2 32.0411 
*END

*D_NET *218 0.00307437
*CONN
*I *640:A3 I *D sky130_fd_sc_hd__mux4_1
*I *743:A I *D sky130_fd_sc_hd__dlygate4sd3_1
*I *723:Q O *D sky130_fd_sc_hd__dfxtp_1
*CAP
1 *640:A3 0.000345423
2 *743:A 0.000314921
3 *723:Q 0.000488846
4 *218:6 0.00114919
5 *640:S1 *640:A3 4.70111e-05
6 *677:A1 *743:A 7.83659e-05
7 *720:CLK *640:A3 8.9851e-05
8 *720:CLK *218:6 5.30637e-06
9 *736:A *640:A3 7.83485e-05
10 *736:A *743:A 0
11 *741:A *743:A 0
12 *769:A *743:A 8.50152e-05
13 *780:A *743:A 4.75972e-05
14 *141:57 *218:6 0.00016007
15 *141:70 *218:6 0.000142492
16 *151:10 *640:A3 4.19319e-05
17 *151:10 *743:A 0
*RES
1 *723:Q *218:6 15.9964 
2 *218:6 *743:A 24.0321 
3 *218:6 *640:A3 24.175 
*END

*D_NET *219 0.00357367
*CONN
*I *763:A I *D sky130_fd_sc_hd__dlygate4sd3_1
*I *762:A I *D sky130_fd_sc_hd__dlygate4sd3_1
*I *673:A I *D sky130_fd_sc_hd__and3_1
*I *703:Q O *D sky130_fd_sc_hd__dfstp_1
*CAP
1 *763:A 0.000140687
2 *762:A 0
3 *673:A 0.00061535
4 *703:Q 5.26021e-05
5 *219:12 0.000700379
6 *219:8 0.000278317
7 *763:A *760:A 5.57914e-05
8 *632:A1 *673:A 0.000272371
9 *632:A2 *673:A 7.41433e-05
10 *632:A2 *219:12 1.08359e-05
11 *637:B *219:12 0
12 *642:C1 *673:A 0.000230431
13 *661:A *763:A 3.18676e-05
14 *665:A *673:A 0.000258005
15 *665:A *219:12 9.25014e-06
16 *703:SET_B *763:A 0
17 *703:SET_B *219:12 0
18 *714:CLK *763:A 0.000220448
19 *714:CLK *219:12 0.000128146
20 *127:96 *673:A 0.000155925
21 *127:102 *673:A 0.00010096
22 *161:14 *219:8 7.71303e-05
23 *161:29 *673:A 8.51331e-05
24 *198:12 *673:A 3.79467e-05
25 *203:10 *673:A 3.79467e-05
*RES
1 *703:Q *219:8 14.5411 
2 *219:8 *219:12 6.44643 
3 *219:12 *673:A 32.1214 
4 *219:12 *762:A 9.3 
5 *219:8 *763:A 17.6214 
*END

*D_NET *220 0.00683968
*CONN
*I *629:B I *D sky130_fd_sc_hd__nor2_1
*I *622:A I *D sky130_fd_sc_hd__or2b_1
*I *634:A1 I *D sky130_fd_sc_hd__a21o_1
*I *625:A1 I *D sky130_fd_sc_hd__a21bo_1
*I *623:A3 I *D sky130_fd_sc_hd__a32o_1
*I *644:D I *D sky130_fd_sc_hd__and4_1
*I *642:A1 I *D sky130_fd_sc_hd__a311o_1
*I *626:B1_N I *D sky130_fd_sc_hd__a21bo_1
*I *704:Q O *D sky130_fd_sc_hd__dfrtp_4
*CAP
1 *629:B 0
2 *622:A 0.000324982
3 *634:A1 0
4 *625:A1 0
5 *623:A3 0
6 *644:D 4.60152e-05
7 *642:A1 0.000204863
8 *626:B1_N 0
9 *704:Q 0.000429859
10 *220:81 0.000795925
11 *220:47 0.000385868
12 *220:41 0.000247718
13 *220:32 0.000603445
14 *220:14 0.000583375
15 *220:12 0.00099346
16 *623:A2 *220:32 0
17 *623:B1 *220:41 0.000226513
18 *624:A *644:D 2.14757e-05
19 *624:B *220:32 8.9224e-06
20 *625:A2 *220:32 6.79824e-05
21 *625:B1_N *220:12 3.34295e-05
22 *625:B1_N *220:32 0
23 *628:A2 *220:14 4.7812e-05
24 *628:A2 *220:32 1.51029e-05
25 *629:A *622:A 0
26 *629:A *220:81 0.000177796
27 *630:B1 *220:14 9.58126e-05
28 *630:B1 *220:81 1.56e-05
29 *634:B1 *622:A 5.41494e-05
30 *642:A2 *642:A1 0.00036769
31 *644:A *644:D 1.97695e-05
32 *651:A *220:81 1.21258e-05
33 *776:A *642:A1 0
34 *776:A *220:47 0
35 *126:16 *642:A1 9.87576e-05
36 *126:121 *220:12 0
37 *198:12 *642:A1 0.000314762
38 *198:12 *220:47 2.72545e-05
39 *208:20 *220:12 0
40 *208:32 *220:32 0.000107761
41 *208:32 *220:41 0
42 *208:44 *644:D 5.33005e-05
43 *208:44 *220:32 8.84211e-05
44 *208:52 *642:A1 1.02504e-05
45 *208:52 *220:41 6.05161e-06
46 *208:52 *220:47 0.000123288
47 *209:10 *220:47 3.51442e-05
48 *209:16 *644:D 1.24368e-05
49 *209:16 *220:47 0.000100831
50 *209:27 *644:D 8.17274e-05
*RES
1 *704:Q *220:12 25.1571 
2 *220:12 *220:14 2.17857 
3 *220:14 *220:32 16.5179 
4 *220:32 *626:B1_N 9.3 
5 *220:32 *220:41 2.60714 
6 *220:41 *220:47 7.28571 
7 *220:47 *642:A1 21.5143 
8 *220:47 *644:D 15.175 
9 *220:41 *623:A3 9.3 
10 *220:14 *625:A1 9.3 
11 *220:12 *220:81 6.19643 
12 *220:81 *634:A1 9.3 
13 *220:81 *622:A 13.9429 
14 *220:12 *629:B 9.3 
*END

*D_NET *221 0.0016095
*CONN
*I *622:B_N I *D sky130_fd_sc_hd__or2b_1
*I *729:A I *D sky130_fd_sc_hd__dlygate4sd3_1
*I *705:Q O *D sky130_fd_sc_hd__dfrtp_1
*CAP
1 *622:B_N 0.000310622
2 *729:A 4.26984e-05
3 *705:Q 9.61011e-05
4 *221:8 0.000449421
5 *775:A *622:B_N 0.000143804
6 *775:A *221:8 0.000318248
7 *781:A *622:B_N 8.16036e-05
8 *781:A *221:8 0.000167005
*RES
1 *705:Q *221:8 17.8714 
2 *221:8 *729:A 14.3357 
3 *221:8 *622:B_N 19.8893 
*END

*D_NET *222 0.00103995
*CONN
*I *760:A I *D sky130_fd_sc_hd__clkdlybuf4s25_1
*I *706:Q O *D sky130_fd_sc_hd__dfrtp_1
*CAP
1 *760:A 0.000273614
2 *706:Q 0.000273614
3 *642:B1 *760:A 2.27416e-05
4 *661:A *760:A 0.000230475
5 *703:SET_B *760:A 0
6 *714:CLK *760:A 0
7 *763:A *760:A 5.57914e-05
8 *127:132 *760:A 0
9 *188:26 *760:A 0.000183713
*RES
1 *706:Q *760:A 34.1 
*END
