*SPEF "ieee 1481-1999"
*DESIGN "counter"
*DATE "11:11:11 Fri 11 11, 1111"
*VENDOR "OpenRCX"
*PROGRAM "Parallel Extraction"
*VERSION "1.0"
*DESIGN_FLOW "NAME_SCOPE LOCAL" "PIN_CAP NONE"
*DIVIDER /
*DELIMITER :
*BUS_DELIMITER []
*T_UNIT 1 NS
*C_UNIT 1 PF
*R_UNIT 1 OHM
*L_UNIT 1 HENRY

*NAME_MAP
*3 clk
*4 count[0]
*5 count[1]
*6 count[2]
*7 count[3]
*8 count[4]
*9 count[5]
*10 count[6]
*11 count[7]
*12 reset
*13 _00_
*14 _01_
*15 _02_
*16 _03_
*17 _04_
*18 _05_
*19 _06_
*20 _07_
*21 _08_
*22 _09_
*23 _10_
*24 _11_
*25 _12_
*26 _13_
*27 _14_
*28 _15_
*29 _16_
*30 _17_
*31 _18_
*32 _19_
*33 _20_
*34 _21_
*35 clknet_0_clk
*36 clknet_1_0__leaf_clk
*37 clknet_1_1__leaf_clk
*38 net1
*39 net10
*40 net11
*41 net12
*42 net13
*43 net14
*44 net15
*45 net16
*46 net17
*47 net18
*48 net2
*49 net3
*50 net4
*51 net5
*52 net6
*53 net7
*54 net8
*55 net9
*56 FILLER_0_0_3
*57 FILLER_0_0_55
*58 FILLER_0_0_7
*59 FILLER_0_1_9
*60 FILLER_0_2_3
*61 FILLER_0_2_56
*62 FILLER_0_3_3
*63 FILLER_0_3_37
*64 FILLER_0_4_15
*65 FILLER_0_4_3
*66 FILLER_0_4_49
*67 FILLER_0_5_15
*68 FILLER_0_5_3
*69 FILLER_0_5_44
*70 FILLER_0_6_3
*71 FILLER_0_8_20
*72 FILLER_0_8_44
*73 FILLER_0_8_56
*74 FILLER_0_9_19
*75 FILLER_0_9_29
*76 FILLER_0_9_3
*77 FILLER_0_9_37
*78 FILLER_0_9_43
*79 FILLER_0_9_55
*80 PHY_0
*81 PHY_1
*82 PHY_10
*83 PHY_11
*84 PHY_12
*85 PHY_13
*86 PHY_14
*87 PHY_15
*88 PHY_16
*89 PHY_17
*90 PHY_18
*91 PHY_19
*92 PHY_2
*93 PHY_3
*94 PHY_4
*95 PHY_5
*96 PHY_6
*97 PHY_7
*98 PHY_8
*99 PHY_9
*100 TAP_20
*101 TAP_21
*102 TAP_22
*103 TAP_23
*104 TAP_24
*105 TAP_25
*106 TAP_26
*107 TAP_27
*108 TAP_28
*109 TAP_29
*110 TAP_30
*111 TAP_31
*112 _22_
*113 _23_
*114 _24_
*115 _25_
*116 _26_
*117 _27_
*118 _28_
*119 _29_
*120 _30_
*121 _31_
*122 _32_
*123 _33_
*124 _34_
*125 _35_
*126 _36_
*127 _37_
*128 _38_
*129 _39_
*130 _40_
*131 _41_
*132 _42_
*133 _43_
*134 _44_
*135 _45_
*136 _46_
*137 _47_
*138 _48_
*139 _49_
*140 _50_
*141 _51_
*142 clkbuf_0_clk
*143 clkbuf_1_0__f_clk
*144 clkbuf_1_1__f_clk
*145 hold1
*146 hold2
*147 hold3
*148 hold4
*149 hold5
*150 hold6
*151 hold7
*152 hold8
*153 hold9
*154 input1
*155 output2
*156 output3
*157 output4
*158 output5
*159 output6
*160 output7
*161 output8
*162 output9

*PORTS
clk I
count[0] O
count[1] O
count[2] O
count[3] O
count[4] O
count[5] O
count[6] O
count[7] O
reset I

*D_NET *3 0.0029446
*CONN
*P clk I
*I *142:A I *D sky130_fd_sc_hd__clkbuf_16
*CAP
1 clk 0.0014723
2 *142:A 0.0014723
3 *142:A *130:A 0
*RES
1 clk *142:A 41.4607 
*END

*D_NET *4 0.00181684
*CONN
*P count[0] O
*I *155:X O *D sky130_fd_sc_hd__clkbuf_4
*CAP
1 count[0] 0.000858361
2 *155:X 0.000858361
3 count[0] count[3] 0.000100115
*RES
1 *155:X count[0] 29.8179 
*END

*D_NET *5 0.000844563
*CONN
*P count[1] O
*I *156:X O *D sky130_fd_sc_hd__clkbuf_4
*CAP
1 count[1] 0.000422282
2 *156:X 0.000422282
*RES
1 *156:X count[1] 22.2464 
*END

*D_NET *6 0.00116772
*CONN
*P count[2] O
*I *157:X O *D sky130_fd_sc_hd__clkbuf_4
*CAP
1 count[2] 0.00054987
2 *157:X 0.00054987
3 count[2] *126:A 5.65955e-05
4 count[2] *134:RESET_B 1.13883e-05
*RES
1 *157:X count[2] 24.2464 
*END

*D_NET *7 0.00205202
*CONN
*P count[3] O
*I *158:X O *D sky130_fd_sc_hd__clkbuf_4
*CAP
1 count[3] 0.000874053
2 *158:X 0.000874053
3 count[3] *123:B 3.08664e-05
4 count[3] *124:A1 4.34028e-05
5 count[3] *155:A 5.51024e-05
6 count[3] *39:22 7.44262e-05
7 count[0] count[3] 0.000100115
*RES
1 *158:X count[3] 28.1401 
*END

*D_NET *8 0.00148917
*CONN
*P count[4] O
*I *159:X O *D sky130_fd_sc_hd__clkbuf_4
*CAP
1 count[4] 0.000579051
2 *159:X 0.000579051
3 count[4] *130:A 0.000331071
*RES
1 *159:X count[4] 22.3735 
*END

*D_NET *9 0.00110659
*CONN
*P count[5] O
*I *160:X O *D sky130_fd_sc_hd__clkbuf_4
*CAP
1 count[5] 0.000553296
2 *160:X 0.000553296
*RES
1 *160:X count[5] 23.5857 
*END

*D_NET *10 0.000995868
*CONN
*P count[6] O
*I *161:X O *D sky130_fd_sc_hd__clkbuf_4
*CAP
1 count[6] 0.000487742
2 *161:X 0.000487742
3 count[6] count[7] 2.03847e-05
4 count[6] *162:A 0
*RES
1 *161:X count[6] 21.5157 
*END

*D_NET *11 0.00202956
*CONN
*P count[7] O
*I *162:X O *D sky130_fd_sc_hd__clkbuf_4
*CAP
1 count[7] 0.000971159
2 *162:X 0.000971159
3 count[7] *161:A 1.47872e-05
4 count[7] *162:A 5.20751e-05
5 count[6] count[7] 2.03847e-05
*RES
1 *162:X count[7] 29.2286 
*END

*D_NET *12 0.00227789
*CONN
*P reset I
*I *154:A I *D sky130_fd_sc_hd__clkbuf_4
*CAP
1 reset 0.000987507
2 *154:A 0.000987507
3 *154:A *113:B 5.49976e-05
4 *154:A *134:RESET_B 0.00019545
5 *154:A *50:14 5.24244e-05
*RES
1 reset *154:A 21.6168 
*END

*D_NET *13 0.000704861
*CONN
*I *134:D I *D sky130_fd_sc_hd__dfrtp_1
*I *112:Y O *D sky130_fd_sc_hd__inv_2
*CAP
1 *134:D 0.000334791
2 *112:Y 0.000334791
3 *134:D *134:CLK 3.5279e-05
*RES
1 *112:Y *134:D 31.6759 
*END

*D_NET *14 0.00103917
*CONN
*I *135:D I *D sky130_fd_sc_hd__dfrtp_1
*I *123:X O *D sky130_fd_sc_hd__xor2_1
*CAP
1 *135:D 0.000190855
2 *123:X 0.000190855
3 *135:D *135:CLK 0.000187427
4 *135:D *36:8 1.25275e-05
5 *135:D *36:12 0.000101777
6 *135:D *39:22 0.000355728
*RES
1 *123:X *135:D 33.6714 
*END

*D_NET *15 0.00123999
*CONN
*I *136:D I *D sky130_fd_sc_hd__dfrtp_1
*I *125:Y O *D sky130_fd_sc_hd__nor2_1
*CAP
1 *136:D 0.000377718
2 *125:Y 0.000377718
3 *136:D *113:A 6.05161e-06
4 *136:D *113:B 3.63775e-05
5 *136:D *125:A 0.000266843
6 *136:D *160:A 5.21873e-05
7 *136:D *29:12 2.30116e-06
8 *136:D *51:20 0.000120795
*RES
1 *125:Y *136:D 34.0107 
*END

*D_NET *16 0.00147306
*CONN
*I *137:D I *D sky130_fd_sc_hd__dfrtp_1
*I *115:X O *D sky130_fd_sc_hd__o21ba_1
*CAP
1 *137:D 0.000417642
2 *115:X 0.000417642
3 *137:D *114:C 0
4 *137:D *124:A2 0.000103541
5 *137:D *124:B1 9.6656e-05
6 *137:D *135:RESET_B 0.000100639
7 *137:D *137:CLK 7.20217e-06
8 *137:D *152:A 4.7812e-05
9 *137:D *30:24 9.66977e-05
10 *137:D *38:53 7.62147e-05
11 *137:D *48:48 1.23168e-05
12 *137:D *49:45 9.66977e-05
*RES
1 *115:X *137:D 35.975 
*END

*D_NET *17 0.000485492
*CONN
*I *138:D I *D sky130_fd_sc_hd__dfrtp_1
*I *116:X O *D sky130_fd_sc_hd__xor2_1
*CAP
1 *138:D 0.000193181
2 *116:X 0.000193181
3 *138:D *30:57 9.9129e-05
*RES
1 *116:X *138:D 30.9214 
*END

*D_NET *18 0.00148566
*CONN
*I *139:D I *D sky130_fd_sc_hd__dfrtp_1
*I *119:Y O *D sky130_fd_sc_hd__nor2_1
*CAP
1 *139:D 0.000457588
2 *119:Y 0.000457588
3 *139:D *119:A 4.93285e-05
4 *139:D *121:D 1.5739e-05
5 *139:D *140:RESET_B 7.69113e-05
6 *139:D *141:CLK 6.05161e-06
7 *139:D *30:36 0.000281693
8 *139:D *31:10 7.73206e-05
9 *139:D *37:14 6.34436e-05
*RES
1 *119:Y *139:D 37.1357 
*END

*D_NET *19 0.000749915
*CONN
*I *140:D I *D sky130_fd_sc_hd__dfrtp_1
*I *120:X O *D sky130_fd_sc_hd__xor2_1
*CAP
1 *140:D 0.000154688
2 *120:X 0.000154688
3 *140:D *122:B 0.000116616
4 *140:D *140:CLK 5.02222e-05
5 *140:D *141:D 0.000171924
6 *140:D *162:A 0.000101777
*RES
1 *120:X *140:D 31.8679 
*END

*D_NET *20 0.00100028
*CONN
*I *141:D I *D sky130_fd_sc_hd__dfrtp_1
*I *122:X O *D sky130_fd_sc_hd__xor2_1
*CAP
1 *141:D 0.000325222
2 *122:X 0.000325222
3 *141:D *122:B 2.6246e-05
4 *141:D *141:CLK 5.79975e-05
5 *141:D *146:A 2.02794e-05
6 *141:D *162:A 4.74108e-05
7 *141:D *55:10 2.59761e-05
8 *140:D *141:D 0.000171924
*RES
1 *122:X *141:D 33.7652 
*END

*D_NET *21 0.00409582
*CONN
*I *134:RESET_B I *D sky130_fd_sc_hd__dfrtp_1
*I *126:Y O *D sky130_fd_sc_hd__inv_2
*CAP
1 *134:RESET_B 0.00152616
2 *126:Y 0.00152616
3 *134:RESET_B *126:A 4.79069e-05
4 *134:RESET_B *136:CLK 6.9288e-05
5 *134:RESET_B *143:A 7.2771e-05
6 *134:RESET_B *155:A 2.90582e-05
7 *134:RESET_B *158:A 0.000131553
8 *134:RESET_B *160:A 3.94388e-05
9 *134:RESET_B *38:8 5.49995e-05
10 *134:RESET_B *38:29 0.000154395
11 *134:RESET_B *38:61 4.83461e-05
12 *134:RESET_B *48:8 2.48016e-05
13 *134:RESET_B *50:10 4.26825e-05
14 *134:RESET_B *50:14 0.000121414
15 count[2] *134:RESET_B 1.13883e-05
16 *154:A *134:RESET_B 0.00019545
*RES
1 *126:Y *134:RESET_B 33.5854 
*END

*D_NET *22 0.000528442
*CONN
*I *135:RESET_B I *D sky130_fd_sc_hd__dfrtp_1
*I *127:Y O *D sky130_fd_sc_hd__inv_2
*CAP
1 *135:RESET_B 0.000105103
2 *127:Y 0.000105103
3 *135:RESET_B *124:A2 7.6997e-05
4 *135:RESET_B *30:24 2.29097e-05
5 *135:RESET_B *38:53 1.42165e-05
6 *135:RESET_B *49:14 0.000103474
7 *137:D *135:RESET_B 0.000100639
*RES
1 *127:Y *135:RESET_B 21.0232 
*END

*D_NET *23 0.000568608
*CONN
*I *136:RESET_B I *D sky130_fd_sc_hd__dfrtp_1
*I *128:Y O *D sky130_fd_sc_hd__inv_2
*CAP
1 *136:RESET_B 0.000235175
2 *128:Y 0.000235175
3 *136:RESET_B *50:10 9.82582e-05
*RES
1 *128:Y *136:RESET_B 22.4875 
*END

*D_NET *24 0.000986029
*CONN
*I *137:RESET_B I *D sky130_fd_sc_hd__dfrtp_1
*I *129:Y O *D sky130_fd_sc_hd__inv_2
*CAP
1 *137:RESET_B 0.000299079
2 *129:Y 0.000299079
3 *137:RESET_B *113:A 9.91224e-05
4 *137:RESET_B *124:B1 1.09065e-05
5 *137:RESET_B *160:A 1.8451e-05
6 *137:RESET_B *29:12 0.000259392
*RES
1 *129:Y *137:RESET_B 23.7911 
*END

*D_NET *25 0.000366529
*CONN
*I *138:RESET_B I *D sky130_fd_sc_hd__dfrtp_1
*I *130:Y O *D sky130_fd_sc_hd__inv_2
*CAP
1 *138:RESET_B 0.000114212
2 *130:Y 0.000114212
3 *138:RESET_B *130:A 4.63699e-05
4 *138:RESET_B *52:6 9.1736e-05
*RES
1 *130:Y *138:RESET_B 20.5232 
*END

*D_NET *26 0.000529233
*CONN
*I *139:RESET_B I *D sky130_fd_sc_hd__dfrtp_1
*I *131:Y O *D sky130_fd_sc_hd__inv_2
*CAP
1 *139:RESET_B 0.000152617
2 *131:Y 0.000152617
3 *139:RESET_B *153:A 6.05161e-06
4 *139:RESET_B *159:A 0.000124012
5 *139:RESET_B *53:8 9.39353e-05
*RES
1 *131:Y *139:RESET_B 21.6482 
*END

*D_NET *27 0.000345106
*CONN
*I *140:RESET_B I *D sky130_fd_sc_hd__dfrtp_1
*I *132:Y O *D sky130_fd_sc_hd__inv_2
*CAP
1 *140:RESET_B 6.06005e-05
2 *132:Y 6.06005e-05
3 *140:RESET_B *121:D 0.000146994
4 *139:D *140:RESET_B 7.69113e-05
*RES
1 *132:Y *140:RESET_B 20.2464 
*END

*D_NET *28 0.000880629
*CONN
*I *141:RESET_B I *D sky130_fd_sc_hd__dfrtp_1
*I *133:Y O *D sky130_fd_sc_hd__inv_2
*CAP
1 *141:RESET_B 0.000233739
2 *133:Y 0.000233739
3 *141:RESET_B *122:B 5.33005e-05
4 *141:RESET_B *133:A 0.000359849
*RES
1 *133:Y *141:RESET_B 23.5143 
*END

*D_NET *29 0.00309832
*CONN
*I *125:A I *D sky130_fd_sc_hd__nor2_1
*I *115:A2 I *D sky130_fd_sc_hd__o21ba_1
*I *113:X O *D sky130_fd_sc_hd__and3_1
*CAP
1 *125:A 0.000214048
2 *115:A2 0.000197879
3 *113:X 0.000261958
4 *29:12 0.000673886
5 *115:A2 *115:A1 0.000246475
6 *115:A2 *115:B1_N 1.17091e-05
7 *115:A2 *38:53 2.94004e-05
8 *125:A *115:A1 5.33005e-05
9 *125:A *125:B 2.84109e-05
10 *125:A *128:A 4.20878e-05
11 *125:A *38:31 8.43535e-06
12 *125:A *38:35 0.000138217
13 *29:12 *113:A 0.000172052
14 *29:12 *113:B 0.000357688
15 *29:12 *160:A 0.000134232
16 *29:12 *51:10 0
17 *136:D *125:A 0.000266843
18 *136:D *29:12 2.30116e-06
19 *137:RESET_B *29:12 0.000259392
*RES
1 *113:X *29:12 25.4429 
2 *29:12 *115:A2 13.0321 
3 *29:12 *125:A 14.675 
*END

*D_NET *30 0.00596649
*CONN
*I *115:B1_N I *D sky130_fd_sc_hd__o21ba_1
*I *121:D I *D sky130_fd_sc_hd__and4_1
*I *118:A2 I *D sky130_fd_sc_hd__a21oi_1
*I *116:B I *D sky130_fd_sc_hd__xor2_1
*I *117:C I *D sky130_fd_sc_hd__and3_1
*I *114:X O *D sky130_fd_sc_hd__and4_1
*CAP
1 *115:B1_N 2.70415e-05
2 *121:D 0.000358593
3 *118:A2 0.000115208
4 *116:B 6.54648e-06
5 *117:C 0
6 *114:X 0.00012311
7 *30:57 0.00042449
8 *30:36 0.000661485
9 *30:24 0.00122846
10 *30:12 0.000661267
11 *115:B1_N *38:53 4.50092e-05
12 *115:B1_N *49:45 2.23592e-05
13 *116:B *118:A1 2.23393e-05
14 *118:A2 *118:A1 0.000180957
15 *121:D *161:A 2.84026e-05
16 *121:D *31:10 7.6997e-05
17 *30:12 *158:A 5.49544e-05
18 *30:12 *38:53 0.000119738
19 *30:12 *49:45 1.9774e-05
20 *30:24 *156:A 0.000111008
21 *30:24 *38:53 5.33005e-05
22 *30:24 *49:10 2.07878e-05
23 *30:24 *49:14 0.000116771
24 *30:24 *49:45 5.96516e-05
25 *30:24 *49:73 4.17427e-05
26 *30:36 *132:A 5.20751e-05
27 *30:36 *138:CLK 1.90194e-05
28 *30:36 *140:CLK 4.58194e-05
29 *30:36 *141:CLK 2.52428e-05
30 *30:36 *31:10 5.33005e-05
31 *30:36 *37:10 3.60828e-05
32 *30:36 *37:30 6.50101e-05
33 *30:36 *54:16 7.15447e-05
34 *30:57 *117:A 2.04263e-05
35 *30:57 *118:A1 7.65336e-06
36 *30:57 *121:A 3.44061e-05
37 *30:57 *121:B 2.74273e-05
38 *30:57 *138:CLK 0.00011954
39 *30:57 *52:10 0.000113496
40 *30:57 *53:43 2.05823e-05
41 *115:A2 *115:B1_N 1.17091e-05
42 *135:RESET_B *30:24 2.29097e-05
43 *137:D *30:24 9.66977e-05
44 *138:D *30:57 9.9129e-05
45 *139:D *121:D 1.5739e-05
46 *139:D *30:36 0.000281693
47 *140:RESET_B *121:D 0.000146994
*RES
1 *114:X *30:12 20.4786 
2 *30:12 *30:24 15.2857 
3 *30:24 *30:36 20.6607 
4 *30:36 *117:C 9.3 
5 *30:36 *30:57 11.2768 
6 *30:57 *116:B 14.0768 
7 *30:57 *118:A2 16.8625 
8 *30:24 *121:D 19.9786 
9 *30:12 *115:B1_N 10.2643 
*END

*D_NET *31 0.00217593
*CONN
*I *119:A I *D sky130_fd_sc_hd__nor2_1
*I *120:B I *D sky130_fd_sc_hd__xor2_1
*I *117:X O *D sky130_fd_sc_hd__and3_1
*CAP
1 *119:A 0.000108612
2 *120:B 0.000266
3 *117:X 0.000323366
4 *31:10 0.000697977
5 *120:B *120:A 0.000407621
6 *120:B *122:B 5.09539e-05
7 *31:10 *140:CLK 6.44554e-05
8 *121:D *31:10 7.6997e-05
9 *139:D *119:A 4.93285e-05
10 *139:D *31:10 7.73206e-05
11 *30:36 *31:10 5.33005e-05
*RES
1 *117:X *31:10 18.6393 
2 *31:10 *120:B 19.2821 
3 *31:10 *119:A 16.05 
*END

*D_NET *32 0.000920532
*CONN
*I *119:B I *D sky130_fd_sc_hd__nor2_1
*I *118:Y O *D sky130_fd_sc_hd__a21oi_1
*CAP
1 *119:B 0.000453663
2 *118:Y 0.000453663
3 *119:B *118:B1 1.32056e-05
*RES
1 *118:Y *119:B 25.7429 
*END

*D_NET *33 0.00131077
*CONN
*I *122:B I *D sky130_fd_sc_hd__xor2_1
*I *121:X O *D sky130_fd_sc_hd__and4_1
*CAP
1 *122:B 0.000391464
2 *121:X 0.000391464
3 *122:B *120:A 0.000224127
4 *122:B *161:A 5.65955e-05
5 *120:B *122:B 5.09539e-05
6 *140:D *122:B 0.000116616
7 *141:D *122:B 2.6246e-05
8 *141:RESET_B *122:B 5.33005e-05
*RES
1 *121:X *122:B 26.6 
*END

*D_NET *34 0.00240928
*CONN
*I *152:A I *D sky130_fd_sc_hd__dlygate4sd3_1
*I *124:Y O *D sky130_fd_sc_hd__a21oi_1
*CAP
1 *152:A 0.000770613
2 *124:Y 0.000770613
3 *152:A *114:C 0.000141863
4 *152:A *124:B1 2.54304e-06
5 *152:A *136:CLK 1.90936e-05
6 *152:A *137:CLK 0.000100768
7 *152:A *143:A 0.000109822
8 *152:A *144:A 0.000303739
9 *152:A *160:A 3.42509e-05
10 *152:A *48:48 0
11 *152:A *49:45 0.000108159
12 *137:D *152:A 4.7812e-05
*RES
1 *124:Y *152:A 40.917 
*END

*D_NET *35 0.0036863
*CONN
*I *143:A I *D sky130_fd_sc_hd__clkbuf_16
*I *144:A I *D sky130_fd_sc_hd__clkbuf_16
*I *142:X O *D sky130_fd_sc_hd__clkbuf_16
*CAP
1 *143:A 0.00135064
2 *144:A 0.000239855
3 *142:X 0
4 *35:4 0.0015905
5 *143:A *136:CLK 6.52956e-06
6 *143:A *160:A 0
7 *144:A *156:A 1.24368e-05
8 *134:RESET_B *143:A 7.2771e-05
9 *152:A *143:A 0.000109822
10 *152:A *144:A 0.000303739
*RES
1 *142:X *35:4 9.3 
2 *35:4 *144:A 23.2464 
3 *35:4 *143:A 37.0437 
*END

*D_NET *36 0.00501024
*CONN
*I *137:CLK I *D sky130_fd_sc_hd__dfrtp_1
*I *136:CLK I *D sky130_fd_sc_hd__dfrtp_1
*I *135:CLK I *D sky130_fd_sc_hd__dfrtp_1
*I *134:CLK I *D sky130_fd_sc_hd__dfrtp_1
*I *143:X O *D sky130_fd_sc_hd__clkbuf_16
*CAP
1 *137:CLK 8.75412e-05
2 *136:CLK 0.000577083
3 *135:CLK 0.000284199
4 *134:CLK 0.000242507
5 *143:X 0.000127558
6 *36:42 0.000820514
7 *36:12 0.000641877
8 *36:8 0.000398619
9 *135:CLK *112:A 1.26328e-05
10 *136:CLK *113:A 5.33005e-05
11 *136:CLK *114:C 9.41642e-05
12 *136:CLK *124:A2 0.000111475
13 *136:CLK *158:A 0.000112822
14 *136:CLK *48:48 0.000102085
15 *136:CLK *49:45 1.98839e-05
16 *137:CLK *124:A1 2.36643e-05
17 *137:CLK *124:B1 6.79196e-05
18 *36:8 *39:22 2.58097e-05
19 *36:12 *39:22 5.77518e-06
20 *36:42 *124:A1 0.000291583
21 *36:42 *155:A 0.000269514
22 *36:42 *158:A 5.49489e-05
23 *36:42 *39:22 4.4873e-05
24 *134:D *134:CLK 3.5279e-05
25 *134:RESET_B *136:CLK 6.9288e-05
26 *135:D *135:CLK 0.000187427
27 *135:D *36:8 1.25275e-05
28 *135:D *36:12 0.000101777
29 *137:D *137:CLK 7.20217e-06
30 *143:A *136:CLK 6.52956e-06
31 *152:A *136:CLK 1.90936e-05
32 *152:A *137:CLK 0.000100768
*RES
1 *143:X *36:8 16.05 
2 *36:8 *36:12 1.875 
3 *36:12 *134:CLK 17.6571 
4 *36:12 *135:CLK 18.4429 
5 *36:8 *36:42 9.14286 
6 *36:42 *136:CLK 29.3692 
7 *36:42 *137:CLK 11.4964 
*END

*D_NET *37 0.00550756
*CONN
*I *138:CLK I *D sky130_fd_sc_hd__dfrtp_1
*I *140:CLK I *D sky130_fd_sc_hd__dfrtp_1
*I *139:CLK I *D sky130_fd_sc_hd__dfrtp_1
*I *141:CLK I *D sky130_fd_sc_hd__dfrtp_1
*I *144:X O *D sky130_fd_sc_hd__clkbuf_16
*CAP
1 *138:CLK 6.36165e-05
2 *140:CLK 0.000744999
3 *139:CLK 0
4 *141:CLK 0.000431693
5 *144:X 0.000468666
6 *37:30 0.00086933
7 *37:14 0.000505848
8 *37:10 0.000603536
9 *138:CLK *117:B 4.96113e-05
10 *138:CLK *53:43 2.78576e-05
11 *140:CLK *146:A 3.80541e-05
12 *140:CLK *54:16 5.33005e-05
13 *141:CLK *132:A 0.000234274
14 *141:CLK *55:10 0.000283624
15 *37:10 *156:A 0.000375419
16 *37:30 *156:A 0.000173614
17 *37:30 *54:16 3.12359e-05
18 *139:D *141:CLK 6.05161e-06
19 *139:D *37:14 6.34436e-05
20 *140:D *140:CLK 5.02222e-05
21 *141:D *141:CLK 5.79975e-05
22 *30:36 *138:CLK 1.90194e-05
23 *30:36 *140:CLK 4.58194e-05
24 *30:36 *141:CLK 2.52428e-05
25 *30:36 *37:10 3.60828e-05
26 *30:36 *37:30 6.50101e-05
27 *30:57 *138:CLK 0.00011954
28 *31:10 *140:CLK 6.44554e-05
*RES
1 *144:X *37:10 20.3893 
2 *37:10 *37:14 5.85714 
3 *37:14 *141:CLK 19.2821 
4 *37:14 *139:CLK 9.3 
5 *37:10 *37:30 6.75 
6 *37:30 *140:CLK 19.7643 
7 *37:30 *138:CLK 11.0679 
*END

*D_NET *38 0.0114735
*CONN
*I *128:A I *D sky130_fd_sc_hd__inv_2
*I *130:A I *D sky130_fd_sc_hd__inv_2
*I *131:A I *D sky130_fd_sc_hd__inv_2
*I *129:A I *D sky130_fd_sc_hd__inv_2
*I *127:A I *D sky130_fd_sc_hd__inv_2
*I *133:A I *D sky130_fd_sc_hd__inv_2
*I *132:A I *D sky130_fd_sc_hd__inv_2
*I *126:A I *D sky130_fd_sc_hd__inv_2
*I *154:X O *D sky130_fd_sc_hd__clkbuf_4
*CAP
1 *128:A 9.56518e-05
2 *130:A 0.000596304
3 *131:A 0
4 *129:A 0
5 *127:A 0
6 *133:A 0.000278861
7 *132:A 0.000264782
8 *126:A 7.98569e-05
9 *154:X 0.000149032
10 *38:107 0.00082952
11 *38:61 0.00128174
12 *38:53 0.00118732
13 *38:35 0.000626024
14 *38:31 0.000470401
15 *38:29 0.000597599
16 *38:8 0.000670443
17 *130:A *159:A 0.000100037
18 *133:A *161:A 3.57223e-05
19 *38:8 *113:B 3.50166e-05
20 *38:8 *50:16 9.56266e-05
21 *38:29 *125:B 5.51716e-05
22 *38:29 *150:A 0.000105656
23 *38:29 *50:10 1.18357e-05
24 *38:29 *50:14 1.08936e-05
25 *38:29 *51:10 0.000209373
26 *38:31 *125:B 5.33005e-05
27 *38:35 *115:A1 0.00012868
28 *38:53 *115:A1 0.000133863
29 *38:53 *48:48 0.000127109
30 *38:53 *49:45 2.07394e-05
31 *38:61 *123:B 0.000459862
32 *38:61 *145:A 0.000309203
33 *38:61 *155:A 8.1932e-05
34 *38:61 *48:8 5.60773e-05
35 *38:61 *48:48 3.65133e-05
36 *38:107 *125:B 0.000366868
37 count[2] *126:A 5.65955e-05
38 count[4] *130:A 0.000331071
39 *115:A2 *38:53 2.94004e-05
40 *115:B1_N *38:53 4.50092e-05
41 *125:A *128:A 4.20878e-05
42 *125:A *38:31 8.43535e-06
43 *125:A *38:35 0.000138217
44 *134:RESET_B *126:A 4.79069e-05
45 *134:RESET_B *38:8 5.49995e-05
46 *134:RESET_B *38:29 0.000154395
47 *134:RESET_B *38:61 4.83461e-05
48 *135:RESET_B *38:53 1.42165e-05
49 *137:D *38:53 7.62147e-05
50 *138:RESET_B *130:A 4.63699e-05
51 *141:CLK *132:A 0.000234274
52 *141:RESET_B *133:A 0.000359849
53 *142:A *130:A 0
54 *30:12 *38:53 0.000119738
55 *30:24 *38:53 5.33005e-05
56 *30:36 *132:A 5.20751e-05
*RES
1 *154:X *38:8 12.3179 
2 *38:8 *126:A 11.3893 
3 *38:8 *38:29 17.8036 
4 *38:29 *38:31 0.946429 
5 *38:31 *38:35 4.25 
6 *38:35 *38:53 18.1429 
7 *38:53 *38:61 18.8929 
8 *38:61 *132:A 18.4786 
9 *38:61 *133:A 20.05 
10 *38:53 *127:A 9.3 
11 *38:35 *129:A 9.3 
12 *38:31 *38:107 14.3393 
13 *38:107 *131:A 9.3 
14 *38:107 *130:A 29.8893 
15 *38:29 *128:A 11.0857 
*END

*D_NET *39 0.00315242
*CONN
*I *112:A I *D sky130_fd_sc_hd__inv_2
*I *124:A1 I *D sky130_fd_sc_hd__a21oi_1
*I *123:A I *D sky130_fd_sc_hd__xor2_1
*I *145:X O *D sky130_fd_sc_hd__buf_1
*CAP
1 *112:A 0.00010478
2 *124:A1 0.000174229
3 *123:A 0
4 *145:X 0.00033543
5 *39:22 0.000615009
6 *39:10 0.000880989
7 *124:A1 *123:B 5.49489e-05
8 *124:A1 *124:B1 3.43688e-05
9 *124:A1 *158:A 5.65955e-05
10 *39:10 *123:B 3.69047e-06
11 *39:22 *155:A 1.4487e-05
12 count[3] *124:A1 4.34028e-05
13 count[3] *39:22 7.44262e-05
14 *135:CLK *112:A 1.26328e-05
15 *135:D *39:22 0.000355728
16 *137:CLK *124:A1 2.36643e-05
17 *36:8 *39:22 2.58097e-05
18 *36:12 *39:22 5.77518e-06
19 *36:42 *124:A1 0.000291583
20 *36:42 *39:22 4.4873e-05
*RES
1 *145:X *39:10 17.8357 
2 *39:10 *39:22 13.5536 
3 *39:22 *123:A 9.3 
4 *39:22 *124:A1 14.5143 
5 *39:10 *112:A 15.6036 
*END

*D_NET *40 0.000371139
*CONN
*I *122:A I *D sky130_fd_sc_hd__xor2_1
*I *146:X O *D sky130_fd_sc_hd__dlygate4sd3_1
*CAP
1 *122:A 0.00018557
2 *146:X 0.00018557
*RES
1 *146:X *122:A 30.1893 
*END

*D_NET *41 0.00140589
*CONN
*I *120:A I *D sky130_fd_sc_hd__xor2_1
*I *147:X O *D sky130_fd_sc_hd__dlygate4sd3_1
*CAP
1 *120:A 0.00018195
2 *147:X 0.00018195
3 *120:A *161:A 0.000185124
4 *120:A *54:18 0.000225117
5 *120:B *120:A 0.000407621
6 *122:B *120:A 0.000224127
*RES
1 *147:X *120:A 25.4393 
*END

*D_NET *42 0.000748144
*CONN
*I *116:A I *D sky130_fd_sc_hd__xor2_1
*I *118:A1 I *D sky130_fd_sc_hd__a21oi_1
*I *148:X O *D sky130_fd_sc_hd__dlygate4sd3_1
*CAP
1 *116:A 0
2 *118:A1 0.000146529
3 *148:X 0.000122068
4 *42:6 0.000268597
5 *116:B *118:A1 2.23393e-05
6 *118:A2 *118:A1 0.000180957
7 *30:57 *118:A1 7.65336e-06
*RES
1 *148:X *42:6 11.0679 
2 *42:6 *118:A1 22.1214 
3 *42:6 *116:A 9.3 
*END

*D_NET *43 0.00152545
*CONN
*I *123:B I *D sky130_fd_sc_hd__xor2_1
*I *149:X O *D sky130_fd_sc_hd__dlygate4sd3_1
*CAP
1 *123:B 0.000472562
2 *149:X 0.000472562
3 *123:B *155:A 3.09595e-05
4 count[3] *123:B 3.08664e-05
5 *124:A1 *123:B 5.49489e-05
6 *38:61 *123:B 0.000459862
7 *39:10 *123:B 3.69047e-06
*RES
1 *149:X *123:B 37.2071 
*END

*D_NET *44 0.000684039
*CONN
*I *115:A1 I *D sky130_fd_sc_hd__o21ba_1
*I *150:X O *D sky130_fd_sc_hd__dlygate4sd3_1
*CAP
1 *115:A1 6.08609e-05
2 *150:X 6.08609e-05
3 *115:A2 *115:A1 0.000246475
4 *125:A *115:A1 5.33005e-05
5 *38:35 *115:A1 0.00012868
6 *38:53 *115:A1 0.000133863
*RES
1 *150:X *115:A1 21.6179 
*END

*D_NET *45 0.00204563
*CONN
*I *124:B1 I *D sky130_fd_sc_hd__a21oi_1
*I *151:X O *D sky130_fd_sc_hd__dlygate4sd3_1
*CAP
1 *124:B1 0.000844867
2 *151:X 0.000844867
3 *124:B1 *151:A 2.59355e-05
4 *124:B1 *160:A 0.000117567
5 *124:A1 *124:B1 3.43688e-05
6 *137:CLK *124:B1 6.79196e-05
7 *137:D *124:B1 9.6656e-05
8 *137:RESET_B *124:B1 1.09065e-05
9 *152:A *124:B1 2.54304e-06
*RES
1 *151:X *124:B1 29.7607 
*END

*D_NET *46 0.00124099
*CONN
*I *125:B I *D sky130_fd_sc_hd__nor2_1
*I *152:X O *D sky130_fd_sc_hd__dlygate4sd3_1
*CAP
1 *125:B 0.000368618
2 *152:X 0.000368618
3 *125:A *125:B 2.84109e-05
4 *38:29 *125:B 5.51716e-05
5 *38:31 *125:B 5.33005e-05
6 *38:107 *125:B 0.000366868
*RES
1 *152:X *125:B 35.1 
*END

*D_NET *47 0.00131027
*CONN
*I *118:B1 I *D sky130_fd_sc_hd__a21oi_1
*I *153:X O *D sky130_fd_sc_hd__dlygate4sd3_1
*CAP
1 *118:B1 0.000485436
2 *153:X 0.000485436
3 *118:B1 *148:A 0.000126416
4 *118:B1 *159:A 0.000199775
5 *119:B *118:B1 1.32056e-05
*RES
1 *153:X *118:B1 37.4036 
*END

*D_NET *48 0.00542725
*CONN
*I *113:A I *D sky130_fd_sc_hd__and3_1
*I *114:A I *D sky130_fd_sc_hd__and4_1
*I *145:A I *D sky130_fd_sc_hd__buf_1
*I *155:A I *D sky130_fd_sc_hd__clkbuf_4
*I *134:Q O *D sky130_fd_sc_hd__dfrtp_1
*CAP
1 *113:A 0.000516798
2 *114:A 0
3 *145:A 0.000191789
4 *155:A 0.000443978
5 *134:Q 0
6 *48:48 0.000798936
7 *48:8 0.000741716
8 *48:4 0.000388086
9 *113:A *113:B 0.000137561
10 *113:A *113:C 2.61361e-05
11 *113:A *114:B 4.08637e-05
12 *113:A *114:C 4.73286e-05
13 *113:A *160:A 7.32563e-05
14 *113:A *50:16 6.44135e-05
15 *113:A *51:20 2.54066e-05
16 *48:8 *158:A 5.49544e-05
17 *48:48 *114:B 9.58126e-05
18 *48:48 *114:C 2.36643e-05
19 *48:48 *158:A 0.000273929
20 *48:48 *51:20 2.9311e-06
21 count[3] *155:A 5.51024e-05
22 *123:B *155:A 3.09595e-05
23 *134:RESET_B *155:A 2.90582e-05
24 *134:RESET_B *48:8 2.48016e-05
25 *136:CLK *113:A 5.33005e-05
26 *136:CLK *48:48 0.000102085
27 *136:D *113:A 6.05161e-06
28 *137:D *48:48 1.23168e-05
29 *137:RESET_B *113:A 9.91224e-05
30 *152:A *48:48 0
31 *29:12 *113:A 0.000172052
32 *36:42 *155:A 0.000269514
33 *38:53 *48:48 0.000127109
34 *38:61 *145:A 0.000309203
35 *38:61 *155:A 8.1932e-05
36 *38:61 *48:8 5.60773e-05
37 *38:61 *48:48 3.65133e-05
38 *39:22 *155:A 1.4487e-05
*RES
1 *134:Q *48:4 9.3 
2 *48:4 *48:8 6.67857 
3 *48:8 *155:A 21.3536 
4 *48:8 *145:A 18.6036 
5 *48:4 *48:48 15.3571 
6 *48:48 *114:A 9.3 
7 *48:48 *113:A 28.6214 
*END

*D_NET *49 0.00761283
*CONN
*I *156:A I *D sky130_fd_sc_hd__clkbuf_4
*I *149:A I *D sky130_fd_sc_hd__dlygate4sd3_1
*I *113:B I *D sky130_fd_sc_hd__and3_1
*I *114:B I *D sky130_fd_sc_hd__and4_1
*I *124:A2 I *D sky130_fd_sc_hd__a21oi_1
*I *135:Q O *D sky130_fd_sc_hd__dfrtp_1
*CAP
1 *156:A 0.000696864
2 *149:A 0
3 *113:B 0.000487964
4 *114:B 0.000104946
5 *124:A2 0.000224143
6 *135:Q 5.21039e-05
7 *49:73 0.000778698
8 *49:45 0.0010294
9 *49:14 0.000750376
10 *49:10 0.000223682
11 *113:B *114:C 7.20217e-06
12 *113:B *50:10 0
13 *113:B *50:16 0.000121942
14 *124:A2 *158:A 5.71031e-05
15 *156:A *121:A 9.96487e-05
16 *156:A *121:B 5.88556e-05
17 *156:A *54:16 0.000169538
18 *49:45 *114:C 0.000171299
19 *49:45 *160:A 8.86537e-05
20 *49:45 *51:20 0.000137561
21 *113:A *113:B 0.000137561
22 *113:A *114:B 4.08637e-05
23 *115:B1_N *49:45 2.23592e-05
24 *135:RESET_B *124:A2 7.6997e-05
25 *135:RESET_B *49:14 0.000103474
26 *136:CLK *124:A2 0.000111475
27 *136:CLK *49:45 1.98839e-05
28 *136:D *113:B 3.63775e-05
29 *137:D *124:A2 0.000103541
30 *137:D *49:45 9.66977e-05
31 *144:A *156:A 1.24368e-05
32 *152:A *49:45 0.000108159
33 *154:A *113:B 5.49976e-05
34 *29:12 *113:B 0.000357688
35 *30:12 *49:45 1.9774e-05
36 *30:24 *156:A 0.000111008
37 *30:24 *49:10 2.07878e-05
38 *30:24 *49:14 0.000116771
39 *30:24 *49:45 5.96516e-05
40 *30:24 *49:73 4.17427e-05
41 *37:10 *156:A 0.000375419
42 *37:30 *156:A 0.000173614
43 *38:8 *113:B 3.50166e-05
44 *38:53 *49:45 2.07394e-05
45 *48:48 *114:B 9.58126e-05
*RES
1 *135:Q *49:10 14.6125 
2 *49:10 *49:14 2.74107 
3 *49:14 *124:A2 18.5321 
4 *49:14 *49:45 29.9464 
5 *49:45 *114:B 10.6571 
6 *49:45 *113:B 27.3893 
7 *49:10 *49:73 1.79464 
8 *49:73 *149:A 13.8 
9 *49:73 *156:A 38.9786 
*END

*D_NET *50 0.00406841
*CONN
*I *151:A I *D sky130_fd_sc_hd__dlygate4sd3_1
*I *157:A I *D sky130_fd_sc_hd__clkbuf_4
*I *113:C I *D sky130_fd_sc_hd__and3_1
*I *114:C I *D sky130_fd_sc_hd__and4_1
*I *136:Q O *D sky130_fd_sc_hd__dfrtp_1
*CAP
1 *151:A 0.000201883
2 *157:A 0
3 *113:C 2.25238e-05
4 *114:C 0.000387965
5 *136:Q 0.000379325
6 *50:16 0.000595449
7 *50:14 0.000309252
8 *50:10 0.0007055
9 *114:C *114:D 3.47793e-05
10 *114:C *160:A 0.000158751
11 *114:C *51:20 2.36643e-05
12 *151:A *51:10 1.58163e-05
13 *50:10 *51:10 7.54868e-05
14 *50:10 *51:20 9.33978e-07
15 *113:A *113:C 2.61361e-05
16 *113:A *114:C 4.73286e-05
17 *113:A *50:16 6.44135e-05
18 *113:B *114:C 7.20217e-06
19 *113:B *50:10 0
20 *113:B *50:16 0.000121942
21 *124:B1 *151:A 2.59355e-05
22 *134:RESET_B *50:10 4.26825e-05
23 *134:RESET_B *50:14 0.000121414
24 *136:CLK *114:C 9.41642e-05
25 *136:RESET_B *50:10 9.82582e-05
26 *137:D *114:C 0
27 *152:A *114:C 0.000141863
28 *154:A *50:14 5.24244e-05
29 *38:8 *50:16 9.56266e-05
30 *38:29 *50:10 1.18357e-05
31 *38:29 *50:14 1.08936e-05
32 *48:48 *114:C 2.36643e-05
33 *49:45 *114:C 0.000171299
*RES
1 *136:Q *50:10 19.1571 
2 *50:10 *50:14 7.05357 
3 *50:14 *50:16 4.23214 
4 *50:16 *114:C 27.3893 
5 *50:16 *113:C 9.925 
6 *50:14 *157:A 9.3 
7 *50:10 *151:A 16.8 
*END

*D_NET *51 0.00383116
*CONN
*I *150:A I *D sky130_fd_sc_hd__dlygate4sd3_1
*I *114:D I *D sky130_fd_sc_hd__and4_1
*I *158:A I *D sky130_fd_sc_hd__clkbuf_4
*I *137:Q O *D sky130_fd_sc_hd__dfrtp_1
*CAP
1 *150:A 7.009e-05
2 *114:D 3.10614e-05
3 *158:A 0.000293839
4 *137:Q 0.00013857
5 *51:20 0.000932287
6 *51:10 0.000816047
7 *113:A *51:20 2.54066e-05
8 *114:C *114:D 3.47793e-05
9 *114:C *51:20 2.36643e-05
10 *124:A1 *158:A 5.65955e-05
11 *124:A2 *158:A 5.71031e-05
12 *134:RESET_B *158:A 0.000131553
13 *136:CLK *158:A 0.000112822
14 *136:D *51:20 0.000120795
15 *151:A *51:10 1.58163e-05
16 *29:12 *51:10 0
17 *30:12 *158:A 5.49544e-05
18 *36:42 *158:A 5.49489e-05
19 *38:29 *150:A 0.000105656
20 *38:29 *51:10 0.000209373
21 *48:8 *158:A 5.49544e-05
22 *48:48 *158:A 0.000273929
23 *48:48 *51:20 2.9311e-06
24 *49:45 *51:20 0.000137561
25 *50:10 *51:10 7.54868e-05
26 *50:10 *51:20 9.33978e-07
*RES
1 *137:Q *51:10 17.0411 
2 *51:10 *51:20 12.4375 
3 *51:20 *158:A 25.1036 
4 *51:20 *114:D 10.0321 
5 *51:10 *150:A 15.2911 
*END

*D_NET *52 0.0042619
*CONN
*I *148:A I *D sky130_fd_sc_hd__dlygate4sd3_1
*I *159:A I *D sky130_fd_sc_hd__clkbuf_4
*I *117:A I *D sky130_fd_sc_hd__and3_1
*I *121:A I *D sky130_fd_sc_hd__and4_1
*I *138:Q O *D sky130_fd_sc_hd__dfrtp_1
*CAP
1 *148:A 0.000108468
2 *159:A 0.000301044
3 *117:A 1.78077e-05
4 *121:A 0.000159348
5 *138:Q 0.000187029
6 *52:10 0.000634291
7 *52:8 0.000851446
8 *52:6 0.000388763
9 *121:A *121:B 0.000382669
10 *121:A *147:A 8.17274e-05
11 *121:A *54:18 0.000226867
12 *52:10 *53:43 1.24891e-05
13 *118:B1 *148:A 0.000126416
14 *118:B1 *159:A 0.000199775
15 *130:A *159:A 0.000100037
16 *138:RESET_B *52:6 9.1736e-05
17 *139:RESET_B *159:A 0.000124012
18 *156:A *121:A 9.96487e-05
19 *30:57 *117:A 2.04263e-05
20 *30:57 *121:A 3.44061e-05
21 *30:57 *52:10 0.000113496
*RES
1 *138:Q *52:6 11.4786 
2 *52:6 *52:8 0.946429 
3 *52:8 *52:10 5.46429 
4 *52:10 *121:A 23.175 
5 *52:10 *117:A 9.72857 
6 *52:8 *159:A 25.3179 
7 *52:6 *148:A 20.4786 
*END

*D_NET *53 0.0065106
*CONN
*I *153:A I *D sky130_fd_sc_hd__dlygate4sd3_1
*I *121:B I *D sky130_fd_sc_hd__and4_1
*I *117:B I *D sky130_fd_sc_hd__and3_1
*I *160:A I *D sky130_fd_sc_hd__clkbuf_4
*I *139:Q O *D sky130_fd_sc_hd__dfrtp_1
*CAP
1 *153:A 0.000301985
2 *121:B 0.000483653
3 *117:B 7.56883e-05
4 *160:A 0.0010699
5 *139:Q 0
6 *53:43 0.000936991
7 *53:8 0.00166412
8 *53:4 0.000518553
9 *121:B *147:A 1.98839e-05
10 *121:B *54:18 4.35597e-05
11 *113:A *160:A 7.32563e-05
12 *114:C *160:A 0.000158751
13 *121:A *121:B 0.000382669
14 *124:B1 *160:A 0.000117567
15 *134:RESET_B *160:A 3.94388e-05
16 *136:D *160:A 5.21873e-05
17 *137:RESET_B *160:A 1.8451e-05
18 *138:CLK *117:B 4.96113e-05
19 *138:CLK *53:43 2.78576e-05
20 *139:RESET_B *153:A 6.05161e-06
21 *139:RESET_B *53:8 9.39353e-05
22 *143:A *160:A 0
23 *152:A *160:A 3.42509e-05
24 *156:A *121:B 5.88556e-05
25 *29:12 *160:A 0.000134232
26 *30:57 *121:B 2.74273e-05
27 *30:57 *53:43 2.05823e-05
28 *49:45 *160:A 8.86537e-05
29 *52:10 *53:43 1.24891e-05
*RES
1 *139:Q *53:4 9.3 
2 *53:4 *53:8 7.08929 
3 *53:8 *160:A 47.0809 
4 *53:8 *53:43 10.1786 
5 *53:43 *117:B 10.2464 
6 *53:43 *121:B 25.0857 
7 *53:4 *153:A 13.0321 
*END

*D_NET *54 0.00305683
*CONN
*I *147:A I *D sky130_fd_sc_hd__dlygate4sd3_1
*I *121:C I *D sky130_fd_sc_hd__and4_1
*I *161:A I *D sky130_fd_sc_hd__clkbuf_4
*I *140:Q O *D sky130_fd_sc_hd__dfrtp_1
*CAP
1 *147:A 6.7472e-05
2 *121:C 0
3 *161:A 0.000433992
4 *140:Q 0.000186457
5 *54:18 0.000538526
6 *54:16 0.000358464
7 *161:A *162:A 0.000228514
8 count[7] *161:A 1.47872e-05
9 *120:A *161:A 0.000185124
10 *120:A *54:18 0.000225117
11 *121:A *147:A 8.17274e-05
12 *121:A *54:18 0.000226867
13 *121:B *147:A 1.98839e-05
14 *121:B *54:18 4.35597e-05
15 *121:D *161:A 2.84026e-05
16 *122:B *161:A 5.65955e-05
17 *133:A *161:A 3.57223e-05
18 *140:CLK *54:16 5.33005e-05
19 *156:A *54:16 0.000169538
20 *30:36 *54:16 7.15447e-05
21 *37:30 *54:16 3.12359e-05
*RES
1 *140:Q *54:16 22.3536 
2 *54:16 *54:18 3.41071 
3 *54:18 *161:A 27.1214 
4 *54:18 *121:C 9.3 
5 *54:16 *147:A 10.6571 
*END

*D_NET *55 0.00277453
*CONN
*I *162:A I *D sky130_fd_sc_hd__clkbuf_4
*I *146:A I *D sky130_fd_sc_hd__dlygate4sd3_1
*I *141:Q O *D sky130_fd_sc_hd__dfrtp_1
*CAP
1 *162:A 0.000440787
2 *146:A 0.000128451
3 *141:Q 0.000419173
4 *55:10 0.000988412
5 count[6] *162:A 0
6 count[7] *162:A 5.20751e-05
7 *140:CLK *146:A 3.80541e-05
8 *140:D *162:A 0.000101777
9 *141:CLK *55:10 0.000283624
10 *141:D *146:A 2.02794e-05
11 *141:D *162:A 4.74108e-05
12 *141:D *55:10 2.59761e-05
13 *161:A *162:A 0.000228514
*RES
1 *141:Q *55:10 19.7375 
2 *55:10 *146:A 15.8804 
3 *55:10 *162:A 22.0232 
*END
