*SPEF "ieee 1481-1999"
*DESIGN "counter"
*DATE "11:11:11 Fri 11 11, 1111"
*VENDOR "OpenRCX"
*PROGRAM "Parallel Extraction"
*VERSION "1.0"
*DESIGN_FLOW "NAME_SCOPE LOCAL" "PIN_CAP NONE"
*DIVIDER /
*DELIMITER :
*BUS_DELIMITER []
*T_UNIT 1 NS
*C_UNIT 1 PF
*R_UNIT 1 OHM
*L_UNIT 1 HENRY

*NAME_MAP
*3 clk
*4 count[0]
*5 count[1]
*6 count[2]
*7 count[3]
*8 count[4]
*9 count[5]
*10 count[6]
*11 count[7]
*12 reset
*13 _00_
*14 _01_
*15 _02_
*16 _03_
*17 _04_
*18 _05_
*19 _06_
*20 _07_
*21 _08_
*22 _09_
*23 _10_
*24 _11_
*25 _12_
*26 _13_
*27 _14_
*28 _15_
*29 _16_
*30 _17_
*31 _18_
*32 _19_
*33 _20_
*34 _21_
*35 clknet_0_clk
*36 clknet_1_0__leaf_clk
*37 clknet_1_1__leaf_clk
*38 net1
*39 net10
*40 net11
*41 net12
*42 net13
*43 net14
*44 net15
*45 net16
*46 net17
*47 net18
*48 net2
*49 net3
*50 net4
*51 net5
*52 net6
*53 net7
*54 net8
*55 net9
*56 FILLER_0_0_3
*57 FILLER_0_0_55
*58 FILLER_0_0_7
*59 FILLER_0_1_9
*60 FILLER_0_2_3
*61 FILLER_0_2_56
*62 FILLER_0_3_3
*63 FILLER_0_3_37
*64 FILLER_0_4_15
*65 FILLER_0_4_3
*66 FILLER_0_4_49
*67 FILLER_0_5_15
*68 FILLER_0_5_3
*69 FILLER_0_5_44
*70 FILLER_0_6_3
*71 FILLER_0_8_20
*72 FILLER_0_8_44
*73 FILLER_0_8_56
*74 FILLER_0_9_19
*75 FILLER_0_9_29
*76 FILLER_0_9_3
*77 FILLER_0_9_37
*78 FILLER_0_9_43
*79 FILLER_0_9_55
*80 PHY_0
*81 PHY_1
*82 PHY_10
*83 PHY_11
*84 PHY_12
*85 PHY_13
*86 PHY_14
*87 PHY_15
*88 PHY_16
*89 PHY_17
*90 PHY_18
*91 PHY_19
*92 PHY_2
*93 PHY_3
*94 PHY_4
*95 PHY_5
*96 PHY_6
*97 PHY_7
*98 PHY_8
*99 PHY_9
*100 TAP_20
*101 TAP_21
*102 TAP_22
*103 TAP_23
*104 TAP_24
*105 TAP_25
*106 TAP_26
*107 TAP_27
*108 TAP_28
*109 TAP_29
*110 TAP_30
*111 TAP_31
*112 _22_
*113 _23_
*114 _24_
*115 _25_
*116 _26_
*117 _27_
*118 _28_
*119 _29_
*120 _30_
*121 _31_
*122 _32_
*123 _33_
*124 _34_
*125 _35_
*126 _36_
*127 _37_
*128 _38_
*129 _39_
*130 _40_
*131 _41_
*132 _42_
*133 _43_
*134 _44_
*135 _45_
*136 _46_
*137 _47_
*138 _48_
*139 _49_
*140 _50_
*141 _51_
*142 clkbuf_0_clk
*143 clkbuf_1_0__f_clk
*144 clkbuf_1_1__f_clk
*145 hold1
*146 hold2
*147 hold3
*148 hold4
*149 hold5
*150 hold6
*151 hold7
*152 hold8
*153 hold9
*154 input1
*155 output2
*156 output3
*157 output4
*158 output5
*159 output6
*160 output7
*161 output8
*162 output9

*PORTS
clk I
count[0] O
count[1] O
count[2] O
count[3] O
count[4] O
count[5] O
count[6] O
count[7] O
reset I

*D_NET *3 0.00311447
*CONN
*P clk I
*I *142:A I *D sky130_fd_sc_hd__clkbuf_16
*CAP
1 clk 0.00155724
2 *142:A 0
3 *3:9 0.00155724
4 *3:9 *38:124 0
*RES
1 clk *3:9 47.0864 
2 *3:9 *142:A 23 
*END

*D_NET *4 0.00189891
*CONN
*P count[0] O
*I *155:X O *D sky130_fd_sc_hd__clkbuf_4
*CAP
1 count[0] 0.000480781
2 *155:X 0.000417271
3 *4:8 0.000898052
4 *4:8 *7:12 0.000102803
*RES
1 *155:X *4:8 45.7679 
2 *4:8 count[0] 10.8129 
*END

*D_NET *5 0.000883396
*CONN
*P count[1] O
*I *156:X O *D sky130_fd_sc_hd__clkbuf_4
*CAP
1 count[1] 0.000441698
2 *156:X 0.000441698
*RES
1 *156:X count[1] 47.7979 
*END

*D_NET *6 0.00123841
*CONN
*P count[2] O
*I *157:X O *D sky130_fd_sc_hd__clkbuf_4
*CAP
1 count[2] 9.25513e-05
2 *157:X 0.000492262
3 *6:12 0.000584813
4 *6:12 *126:A 5.79559e-05
5 *6:12 *21:10 1.08287e-05
*RES
1 *157:X *6:12 47.9325 
2 *6:12 count[2] 2.18536 
*END

*D_NET *7 0.00215864
*CONN
*P count[3] O
*I *158:X O *D sky130_fd_sc_hd__clkbuf_4
*CAP
1 count[3] 0.000358207
2 *158:X 0.000567256
3 *7:12 0.000925463
4 count[3] *39:22 0
5 *7:12 *123:B 3.22051e-05
6 *7:12 *124:A1 4.32661e-05
7 *7:12 *155:A 5.22498e-05
8 *7:12 *39:22 7.71928e-05
9 *4:8 *7:12 0.000102803
*RES
1 *158:X *7:12 46.8864 
2 *7:12 count[3] 11.8102 
*END

*D_NET *8 0.00171898
*CONN
*P count[4] O
*I *159:X O *D sky130_fd_sc_hd__clkbuf_4
*CAP
1 count[4] 0.000401224
2 *159:X 0.000275262
3 *8:10 0.000676486
4 *8:10 *38:124 0.000366007
*RES
1 *159:X *8:10 43.1682 
2 *8:10 count[4] 8.84373 
*END

*D_NET *9 0.00118793
*CONN
*P count[5] O
*I *160:X O *D sky130_fd_sc_hd__clkbuf_4
*CAP
1 count[5] 0.000593966
2 *160:X 0.000593966
*RES
1 *160:X count[5] 49.3514 
*END

*D_NET *10 0.00104214
*CONN
*P count[6] O
*I *161:X O *D sky130_fd_sc_hd__clkbuf_4
*CAP
1 count[6] 0.000207963
2 *161:X 0.000303636
3 *10:10 0.000511598
4 *10:10 *162:A 0
5 *10:10 *11:8 1.89389e-05
*RES
1 *161:X *10:10 42.2568 
2 *10:10 count[6] 8.75787 
*END

*D_NET *11 0.00212688
*CONN
*P count[7] O
*I *162:X O *D sky130_fd_sc_hd__clkbuf_4
*CAP
1 count[7] 0.0003882
2 *162:X 0.00063137
3 *11:8 0.00101957
4 *11:8 *162:A 5.40337e-05
5 *11:8 *54:34 1.47709e-05
6 *10:10 *11:8 1.89389e-05
*RES
1 *162:X *11:8 47.1971 
2 *11:8 count[7] 8.7 
*END

*D_NET *12 0.0025986
*CONN
*P reset I
*I *154:A I *D sky130_fd_sc_hd__clkbuf_4
*CAP
1 reset 0.00114987
2 *154:A 0
3 *12:15 0.00114987
4 *12:15 *134:RESET_B 0.00019179
5 *12:15 *49:66 5.70735e-05
6 *12:15 *50:14 4.9986e-05
*RES
1 reset *12:15 28.1654 
2 *12:15 *154:A 23 
*END

*D_NET *13 0.000768574
*CONN
*I *134:D I *D sky130_fd_sc_hd__dfrtp_1
*I *112:Y O *D sky130_fd_sc_hd__inv_2
*CAP
1 *134:D 0.000138387
2 *112:Y 0.000229127
3 *13:10 0.000367514
4 *134:D *134:CLK 3.35455e-05
*RES
1 *112:Y *13:10 40.7757 
2 *13:10 *134:D 39.9523 
*END

*D_NET *14 0.00118606
*CONN
*I *135:D I *D sky130_fd_sc_hd__dfrtp_1
*I *123:X O *D sky130_fd_sc_hd__xor2_1
*CAP
1 *135:D 0
2 *123:X 0.000226962
3 *14:14 0.000226962
4 *14:14 *135:CLK 0.000209283
5 *14:14 *36:8 1.29848e-05
6 *14:14 *36:12 0.000113244
7 *14:14 *39:22 0.000396624
*RES
1 *123:X *14:14 45.0429 
2 *14:14 *135:D 38 
*END

*D_NET *15 0.00137289
*CONN
*I *136:D I *D sky130_fd_sc_hd__dfrtp_1
*I *125:Y O *D sky130_fd_sc_hd__nor2_1
*CAP
1 *136:D 0.000118649
2 *125:Y 0.000320881
3 *15:10 0.00043953
4 *136:D *48:69 6.17437e-06
5 *136:D *49:66 3.65917e-05
6 *136:D *51:20 0.000119299
7 *15:10 *125:A 0.000270647
8 *15:10 *29:10 2.12347e-06
9 *15:10 *51:20 4.96811e-06
10 *15:10 *53:22 5.40266e-05
*RES
1 *125:Y *15:10 42.9093 
2 *15:10 *136:D 40.5271 
*END

*D_NET *16 0.0016948
*CONN
*I *137:D I *D sky130_fd_sc_hd__dfrtp_1
*I *115:X O *D sky130_fd_sc_hd__o21ba_1
*CAP
1 *137:D 5.49413e-05
2 *115:X 0.00046258
3 *16:14 0.000517521
4 *137:D *137:CLK 7.51453e-06
5 *137:D *34:8 4.77213e-05
6 *137:D *45:12 0.000100374
7 *16:14 *124:A2 0.000106706
8 *16:14 *22:8 0.000111462
9 *16:14 *30:24 9.77405e-05
10 *16:14 *38:53 7.87116e-05
11 *16:14 *48:48 1.17861e-05
12 *16:14 *49:35 9.77405e-05
13 *16:14 *50:32 0
*RES
1 *115:X *16:14 45.6436 
2 *16:14 *137:D 40.0714 
*END

*D_NET *17 0.000554964
*CONN
*I *138:D I *D sky130_fd_sc_hd__dfrtp_1
*I *116:X O *D sky130_fd_sc_hd__xor2_1
*CAP
1 *138:D 0
2 *116:X 0.000222806
3 *17:12 0.000222806
4 *17:12 *30:57 0.000109352
*RES
1 *116:X *17:12 41.8529 
2 *17:12 *138:D 38 
*END

*D_NET *18 0.001704
*CONN
*I *139:D I *D sky130_fd_sc_hd__dfrtp_1
*I *119:Y O *D sky130_fd_sc_hd__nor2_1
*CAP
1 *139:D 8.60666e-05
2 *119:Y 0.000463871
3 *18:12 0.000549938
4 *139:D *141:CLK 6.17437e-06
5 *139:D *30:32 5.52998e-05
6 *139:D *37:14 6.52749e-05
7 *18:12 *119:A 5.119e-05
8 *18:12 *121:D 1.56758e-05
9 *18:12 *27:8 8.04217e-05
10 *18:12 *30:32 0.000249915
11 *18:12 *31:10 8.0169e-05
*RES
1 *119:Y *18:12 47.4871 
2 *18:12 *139:D 39.5743 
*END

*D_NET *19 0.000837944
*CONN
*I *140:D I *D sky130_fd_sc_hd__dfrtp_1
*I *120:X O *D sky130_fd_sc_hd__xor2_1
*CAP
1 *140:D 9.17104e-05
2 *120:X 8.91241e-05
3 *19:12 0.000180835
4 *140:D *140:CLK 5.02509e-05
5 *19:12 *162:A 0.000113244
6 *19:12 *20:14 0.000188428
7 *19:12 *33:14 0.000124352
*RES
1 *120:X *19:12 41.3764 
2 *19:12 *140:D 39.5743 
*END

*D_NET *20 0.00114456
*CONN
*I *141:D I *D sky130_fd_sc_hd__dfrtp_1
*I *122:X O *D sky130_fd_sc_hd__xor2_1
*CAP
1 *141:D 7.56561e-05
2 *122:X 0.00030932
3 *20:14 0.000384976
4 *141:D *141:CLK 6.05943e-05
5 *20:14 *146:A 2.23467e-05
6 *20:14 *162:A 4.91848e-05
7 *20:14 *33:14 2.72263e-05
8 *20:14 *55:10 2.68248e-05
9 *19:12 *20:14 0.000188428
*RES
1 *122:X *20:14 43.9864 
2 *20:14 *141:D 39.1652 
*END

*D_NET *21 0.00466808
*CONN
*I *134:RESET_B I *D sky130_fd_sc_hd__dfrtp_1
*I *126:Y O *D sky130_fd_sc_hd__inv_2
*CAP
1 *134:RESET_B 0.0015019
2 *126:Y 0.000294508
3 *21:10 0.00179641
4 *134:RESET_B *155:A 2.71586e-05
5 *134:RESET_B *35:37 6.90983e-05
6 *134:RESET_B *36:58 6.57145e-05
7 *134:RESET_B *38:61 4.88664e-05
8 *134:RESET_B *48:8 2.55762e-05
9 *134:RESET_B *51:30 0.000144599
10 *134:RESET_B *53:22 3.79537e-05
11 *21:10 *126:A 4.78051e-05
12 *21:10 *38:8 5.5792e-05
13 *21:10 *38:29 0.000169722
14 *21:10 *50:10 4.67227e-05
15 *21:10 *50:14 0.000133637
16 *6:12 *21:10 1.08287e-05
17 *12:15 *134:RESET_B 0.00019179
*RES
1 *126:Y *21:10 42.9611 
2 *21:10 *134:RESET_B 35.9192 
*END

*D_NET *22 0.000611175
*CONN
*I *135:RESET_B I *D sky130_fd_sc_hd__dfrtp_1
*I *127:Y O *D sky130_fd_sc_hd__inv_2
*CAP
1 *135:RESET_B 4.01072e-05
2 *127:Y 9.1052e-05
3 *22:8 0.000131159
4 *135:RESET_B *30:24 2.33744e-05
5 *22:8 *124:A2 8.50366e-05
6 *22:8 *38:53 1.35764e-05
7 *22:8 *49:14 0.000115407
8 *16:14 *22:8 0.000111462
*RES
1 *127:Y *22:8 40.61 
2 *22:8 *135:RESET_B 15.5489 
*END

*D_NET *23 0.000621232
*CONN
*I *136:RESET_B I *D sky130_fd_sc_hd__dfrtp_1
*I *128:Y O *D sky130_fd_sc_hd__inv_2
*CAP
1 *136:RESET_B 7.30715e-05
2 *128:Y 0.000186284
3 *23:10 0.000259356
4 *136:RESET_B *50:10 0.00010252
*RES
1 *128:Y *23:10 40.8793 
2 *23:10 *136:RESET_B 16.9782 
*END

*D_NET *24 0.00112591
*CONN
*I *137:RESET_B I *D sky130_fd_sc_hd__dfrtp_1
*I *129:Y O *D sky130_fd_sc_hd__inv_2
*CAP
1 *137:RESET_B 0.000186218
2 *129:Y 0.000164439
3 *24:8 0.000350657
4 *137:RESET_B *45:12 1.03278e-05
5 *24:8 *29:10 0.000287089
6 *24:8 *48:69 0.000109343
7 *24:8 *53:22 1.78353e-05
*RES
1 *129:Y *24:8 42.0186 
2 *24:8 *137:RESET_B 17.3511 
*END

*D_NET *25 0.000416934
*CONN
*I *138:RESET_B I *D sky130_fd_sc_hd__dfrtp_1
*I *130:Y O *D sky130_fd_sc_hd__inv_2
*CAP
1 *138:RESET_B 5.09654e-05
2 *130:Y 8.68106e-05
3 *25:8 0.000137776
4 *138:RESET_B *52:6 9.32992e-05
5 *25:8 *38:124 4.80826e-05
*RES
1 *130:Y *25:8 39.5536 
2 *25:8 *138:RESET_B 16.0254 
*END

*D_NET *26 0.000592712
*CONN
*I *139:RESET_B I *D sky130_fd_sc_hd__dfrtp_1
*I *131:Y O *D sky130_fd_sc_hd__inv_2
*CAP
1 *139:RESET_B 8.41762e-05
2 *131:Y 9.15789e-05
3 *26:8 0.000175755
4 *139:RESET_B *153:A 6.17437e-06
5 *139:RESET_B *53:8 9.72829e-05
6 *26:8 *52:46 0.000137744
*RES
1 *131:Y *26:8 39.9057 
2 *26:8 *139:RESET_B 16.9782 
*END

*D_NET *27 0.000395265
*CONN
*I *140:RESET_B I *D sky130_fd_sc_hd__dfrtp_1
*I *132:Y O *D sky130_fd_sc_hd__inv_2
*CAP
1 *140:RESET_B 0
2 *132:Y 7.59088e-05
3 *27:8 7.59088e-05
4 *27:8 *121:D 0.000163025
5 *18:12 *27:8 8.04217e-05
*RES
1 *132:Y *27:8 40.2579 
2 *27:8 *140:RESET_B 15 
*END

*D_NET *28 0.000996089
*CONN
*I *141:RESET_B I *D sky130_fd_sc_hd__dfrtp_1
*I *133:Y O *D sky130_fd_sc_hd__inv_2
*CAP
1 *141:RESET_B 0
2 *133:Y 0.000270658
3 *28:10 0.000270658
4 *28:10 *133:A 0.000401468
5 *28:10 *33:14 5.3304e-05
*RES
1 *133:Y *28:10 44.0486 
2 *28:10 *141:RESET_B 15 
*END

*D_NET *29 0.00346006
*CONN
*I *125:A I *D sky130_fd_sc_hd__nor2_1
*I *115:A2 I *D sky130_fd_sc_hd__o21ba_1
*I *113:X O *D sky130_fd_sc_hd__and3_1
*CAP
1 *125:A 0.000250248
2 *115:A2 0.000229944
3 *113:X 0.000321945
4 *29:12 0.000480192
5 *29:10 0.000321945
6 *115:A2 *115:A1 0.000251784
7 *115:A2 *115:B1_N 1.11037e-05
8 *115:A2 *38:53 2.94066e-05
9 *125:A *115:A1 5.3304e-05
10 *125:A *125:B 2.93431e-05
11 *125:A *128:A 4.30491e-05
12 *125:A *38:31 8.48502e-06
13 *125:A *38:35 0.00014375
14 *29:10 *48:69 0.00019012
15 *29:10 *49:66 0.000387076
16 *29:10 *51:10 0
17 *29:10 *53:22 0.000148503
18 *15:10 *125:A 0.000270647
19 *15:10 *29:10 2.12347e-06
20 *24:8 *29:10 0.000287089
*RES
1 *113:X *29:10 46.2857 
2 *29:10 *29:12 15 
3 *29:12 *115:A2 27.3293 
4 *29:12 *125:A 29.235 
*END

*D_NET *30 0.00672847
*CONN
*I *115:B1_N I *D sky130_fd_sc_hd__o21ba_1
*I *121:D I *D sky130_fd_sc_hd__and4_1
*I *118:A2 I *D sky130_fd_sc_hd__a21oi_1
*I *116:B I *D sky130_fd_sc_hd__xor2_1
*I *117:C I *D sky130_fd_sc_hd__and3_1
*I *114:X O *D sky130_fd_sc_hd__and4_1
*CAP
1 *115:B1_N 3.15866e-05
2 *121:D 0.000422823
3 *118:A2 0.00012865
4 *116:B 7.80431e-06
5 *117:C 0
6 *114:X 0.000149403
7 *30:57 0.000494468
8 *30:36 0.000447001
9 *30:32 0.00042426
10 *30:24 0.00135319
11 *30:12 0.000626684
12 *30:10 0.000149403
13 *115:B1_N *38:53 4.68412e-05
14 *115:B1_N *49:35 2.31687e-05
15 *116:B *42:16 2.52012e-05
16 *118:A2 *42:16 0.000201355
17 *121:D *31:10 8.50366e-05
18 *121:D *54:34 2.93335e-05
19 *30:10 *38:53 0.000131538
20 *30:10 *49:35 1.85903e-05
21 *30:10 *51:30 5.56356e-05
22 *30:24 *38:53 5.3304e-05
23 *30:24 *49:10 2.07484e-05
24 *30:24 *49:14 0.000130654
25 *30:24 *49:35 6.08617e-05
26 *30:24 *49:73 4.0028e-05
27 *30:24 *49:96 0.000115272
28 *30:32 *132:A 5.40337e-05
29 *30:32 *141:CLK 2.5149e-05
30 *30:32 *37:10 3.71228e-05
31 *30:32 *37:30 6.74947e-05
32 *30:32 *54:14 7.89235e-05
33 *30:36 *138:CLK 1.94052e-05
34 *30:36 *140:CLK 4.67488e-05
35 *30:36 *31:10 5.3304e-05
36 *30:57 *117:A 2.24698e-05
37 *30:57 *138:CLK 0.000121537
38 *30:57 *42:16 7.34394e-06
39 *30:57 *52:10 0.000115715
40 *30:57 *52:20 3.5342e-05
41 *30:57 *53:43 1.96141e-05
42 *30:57 *53:58 2.59343e-05
43 *115:A2 *115:B1_N 1.11037e-05
44 *135:RESET_B *30:24 2.33744e-05
45 *139:D *30:32 5.52998e-05
46 *16:14 *30:24 9.77405e-05
47 *17:12 *30:57 0.000109352
48 *18:12 *121:D 1.56758e-05
49 *18:12 *30:32 0.000249915
50 *27:8 *121:D 0.000163025
*RES
1 *114:X *30:10 40.5271 
2 *30:10 *30:12 15 
3 *30:12 *30:24 27.5114 
4 *30:24 *30:32 36.8979 
5 *30:32 *30:36 16.4086 
6 *30:36 *117:C 23 
7 *30:36 *30:57 22.8611 
8 *30:57 *116:B 38.3211 
9 *30:57 *118:A2 41.5525 
10 *30:24 *121:D 45.1671 
11 *30:12 *115:B1_N 24.1186 
*END

*D_NET *31 0.00238673
*CONN
*I *119:A I *D sky130_fd_sc_hd__nor2_1
*I *120:B I *D sky130_fd_sc_hd__xor2_1
*I *117:X O *D sky130_fd_sc_hd__and3_1
*CAP
1 *119:A 0.000122032
2 *120:B 0.000292298
3 *117:X 0.000375639
4 *31:10 0.000789969
5 *120:B *33:14 5.44267e-05
6 *120:B *41:10 0.000417953
7 *31:10 *140:CLK 6.47117e-05
8 *121:D *31:10 8.50366e-05
9 *18:12 *119:A 5.119e-05
10 *18:12 *31:10 8.0169e-05
11 *30:36 *31:10 5.3304e-05
*RES
1 *117:X *31:10 43.6136 
2 *31:10 *120:B 44.3593 
3 *31:10 *119:A 40.61 
*END

*D_NET *32 0.00100596
*CONN
*I *119:B I *D sky130_fd_sc_hd__nor2_1
*I *118:Y O *D sky130_fd_sc_hd__a21oi_1
*CAP
1 *119:B 0
2 *118:Y 0.000496216
3 *32:10 0.000496216
4 *32:10 *118:B1 1.3523e-05
*RES
1 *118:Y *32:10 31.2857 
2 *32:10 *119:B 23 
*END

*D_NET *33 0.00141785
*CONN
*I *122:B I *D sky130_fd_sc_hd__xor2_1
*I *121:X O *D sky130_fd_sc_hd__and4_1
*CAP
1 *122:B 0
2 *121:X 0.000435499
3 *33:14 0.000435499
4 *33:14 *41:10 0.000229592
5 *33:14 *54:34 5.79559e-05
6 *120:B *33:14 5.44267e-05
7 *19:12 *33:14 0.000124352
8 *20:14 *33:14 2.72263e-05
9 *28:10 *33:14 5.3304e-05
*RES
1 *121:X *33:14 32.28 
2 *33:14 *122:B 23 
*END

*D_NET *34 0.0027202
*CONN
*I *152:A I *D sky130_fd_sc_hd__dlygate4sd3_1
*I *124:Y O *D sky130_fd_sc_hd__a21oi_1
*CAP
1 *152:A 0.000614121
2 *124:Y 0.000277455
3 *34:8 0.000891576
4 *152:A *35:14 0.00033472
5 *152:A *35:37 0.000120849
6 *152:A *36:58 2.05503e-05
7 *152:A *48:48 0
8 *152:A *49:35 0.000108129
9 *152:A *49:45 1.03972e-05
10 *152:A *50:32 0.000155844
11 *152:A *53:22 0
12 *34:8 *137:CLK 0.000102207
13 *34:8 *45:12 2.38387e-06
14 *34:8 *53:22 3.42479e-05
15 *137:D *34:8 4.77213e-05
*RES
1 *124:Y *34:8 41.9927 
2 *34:8 *152:A 49.455 
*END

*D_NET *35 0.00416969
*CONN
*I *143:A I *D sky130_fd_sc_hd__clkbuf_16
*I *144:A I *D sky130_fd_sc_hd__clkbuf_16
*I *142:X O *D sky130_fd_sc_hd__clkbuf_16
*CAP
1 *143:A 6.95222e-05
2 *144:A 0
3 *142:X 0
4 *35:37 0.00154642
5 *35:14 0.000266884
6 *35:4 0.00174378
7 *143:A *53:30 0
8 *35:14 *49:96 1.24376e-05
9 *35:37 *36:58 5.97906e-06
10 *35:37 *53:22 0
11 *134:RESET_B *35:37 6.90983e-05
12 *152:A *35:14 0.00033472
13 *152:A *35:37 0.000120849
*RES
1 *142:X *35:4 23 
2 *35:4 *35:14 35.7379 
3 *35:14 *144:A 23 
4 *35:4 *35:37 43.6023 
5 *35:37 *143:A 47.3775 
*END

*D_NET *36 0.00559285
*CONN
*I *137:CLK I *D sky130_fd_sc_hd__dfrtp_1
*I *136:CLK I *D sky130_fd_sc_hd__dfrtp_1
*I *135:CLK I *D sky130_fd_sc_hd__dfrtp_1
*I *134:CLK I *D sky130_fd_sc_hd__dfrtp_1
*I *143:X O *D sky130_fd_sc_hd__clkbuf_16
*CAP
1 *137:CLK 9.89502e-05
2 *136:CLK 6.12453e-05
3 *135:CLK 0.000325349
4 *134:CLK 0.000268493
5 *143:X 0.000146803
6 *36:58 0.000682372
7 *36:42 0.000899246
8 *36:12 0.000736841
9 *36:8 0.000468972
10 *135:CLK *112:A 1.21592e-05
11 *136:CLK *48:48 9.64943e-05
12 *136:CLK *48:69 5.3304e-05
13 *136:CLK *49:45 2.02872e-05
14 *136:CLK *50:32 9.41704e-05
15 *137:CLK *124:A1 2.46906e-05
16 *137:CLK *45:12 6.82815e-05
17 *36:8 *39:22 2.77321e-05
18 *36:12 *39:22 6.09979e-06
19 *36:42 *124:A1 0.000299184
20 *36:42 *155:A 0.000274654
21 *36:42 *39:22 4.65192e-05
22 *36:42 *51:30 5.56279e-05
23 *36:58 *124:A2 0.000123075
24 *36:58 *48:48 6.10551e-06
25 *36:58 *51:30 0.000125167
26 *134:D *134:CLK 3.35455e-05
27 *134:RESET_B *36:58 6.57145e-05
28 *137:D *137:CLK 7.51453e-06
29 *152:A *36:58 2.05503e-05
30 *14:14 *135:CLK 0.000209283
31 *14:14 *36:8 1.29848e-05
32 *14:14 *36:12 0.000113244
33 *34:8 *137:CLK 0.000102207
34 *35:37 *36:58 5.97906e-06
*RES
1 *143:X *36:8 40.61 
2 *36:8 *36:12 2.175 
3 *36:12 *134:CLK 42.4743 
4 *36:12 *135:CLK 43.3857 
5 *36:8 *36:42 20.3857 
6 *36:42 *36:58 49.3767 
7 *36:58 *136:CLK 24.5743 
8 *36:42 *137:CLK 25.5479 
*END

*D_NET *37 0.00605499
*CONN
*I *138:CLK I *D sky130_fd_sc_hd__dfrtp_1
*I *140:CLK I *D sky130_fd_sc_hd__dfrtp_1
*I *139:CLK I *D sky130_fd_sc_hd__dfrtp_1
*I *141:CLK I *D sky130_fd_sc_hd__dfrtp_1
*I *144:X O *D sky130_fd_sc_hd__clkbuf_16
*CAP
1 *138:CLK 8.11089e-05
2 *140:CLK 0.000829746
3 *139:CLK 0
4 *141:CLK 0.000485174
5 *144:X 0.000519243
6 *37:30 0.000987422
7 *37:14 0.000574505
8 *37:10 0.000685142
9 *138:CLK *117:B 5.11621e-05
10 *138:CLK *53:43 2.86398e-05
11 *140:CLK *146:A 3.8725e-05
12 *140:CLK *54:14 5.3304e-05
13 *141:CLK *132:A 0.000236529
14 *141:CLK *55:10 0.000295005
15 *37:10 *49:96 0.000396632
16 *37:30 *49:96 0.000193873
17 *37:30 *54:14 3.43144e-05
18 *139:D *141:CLK 6.17437e-06
19 *139:D *37:14 6.52749e-05
20 *140:D *140:CLK 5.02509e-05
21 *141:D *141:CLK 6.05943e-05
22 *30:32 *141:CLK 2.5149e-05
23 *30:32 *37:10 3.71228e-05
24 *30:32 *37:30 6.74947e-05
25 *30:36 *138:CLK 1.94052e-05
26 *30:36 *140:CLK 4.67488e-05
27 *30:57 *138:CLK 0.000121537
28 *31:10 *140:CLK 6.47117e-05
*RES
1 *144:X *37:10 45.6436 
2 *37:10 *37:14 16.5743 
3 *37:14 *141:CLK 34.5793 
4 *37:14 *139:CLK 23 
5 *37:10 *37:30 17.61 
6 *37:30 *140:CLK 35.1386 
7 *37:30 *138:CLK 25.0507 
*END

*D_NET *38 0.0127527
*CONN
*I *128:A I *D sky130_fd_sc_hd__inv_2
*I *130:A I *D sky130_fd_sc_hd__inv_2
*I *131:A I *D sky130_fd_sc_hd__inv_2
*I *129:A I *D sky130_fd_sc_hd__inv_2
*I *127:A I *D sky130_fd_sc_hd__inv_2
*I *133:A I *D sky130_fd_sc_hd__inv_2
*I *132:A I *D sky130_fd_sc_hd__inv_2
*I *126:A I *D sky130_fd_sc_hd__inv_2
*I *154:X O *D sky130_fd_sc_hd__clkbuf_4
*CAP
1 *128:A 0.000105391
2 *130:A 0
3 *131:A 0
4 *129:A 0
5 *127:A 0
6 *133:A 0.000323091
7 *132:A 0.000284364
8 *126:A 8.4037e-05
9 *154:X 0.000167895
10 *38:124 0.000673454
11 *38:107 0.000941432
12 *38:61 0.0014342
13 *38:53 0.00134889
14 *38:35 0.000714767
15 *38:31 0.000534262
16 *38:29 0.000698566
17 *38:8 0.000771441
18 *133:A *54:34 3.84847e-05
19 *38:8 *49:66 3.85196e-05
20 *38:8 *50:16 9.90118e-05
21 *38:29 *150:A 0.000116256
22 *38:29 *46:10 6.12484e-05
23 *38:29 *50:10 1.22698e-05
24 *38:29 *50:14 1.13013e-05
25 *38:29 *51:10 0.000233921
26 *38:31 *125:B 5.3304e-05
27 *38:35 *115:A1 0.000131473
28 *38:53 *115:A1 0.000138314
29 *38:53 *48:48 0.000130823
30 *38:53 *49:35 1.98624e-05
31 *38:61 *145:A 0.000346491
32 *38:61 *155:A 9.20193e-05
33 *38:61 *43:10 0.000513976
34 *38:61 *48:8 5.62217e-05
35 *38:61 *48:48 3.6605e-05
36 *38:107 *46:10 0.000403318
37 *38:124 *52:46 0.000102551
38 *115:A2 *38:53 2.94066e-05
39 *115:B1_N *38:53 4.68412e-05
40 *125:A *128:A 4.30491e-05
41 *125:A *38:31 8.48502e-06
42 *125:A *38:35 0.00014375
43 *134:RESET_B *38:61 4.88664e-05
44 *141:CLK *132:A 0.000236529
45 *3:9 *38:124 0
46 *6:12 *126:A 5.79559e-05
47 *8:10 *38:124 0.000366007
48 *16:14 *38:53 7.87116e-05
49 *21:10 *126:A 4.78051e-05
50 *21:10 *38:8 5.5792e-05
51 *21:10 *38:29 0.000169722
52 *22:8 *38:53 1.35764e-05
53 *25:8 *38:124 4.80826e-05
54 *28:10 *133:A 0.000401468
55 *30:10 *38:53 0.000131538
56 *30:24 *38:53 5.3304e-05
57 *30:32 *132:A 5.40337e-05
*RES
1 *154:X *38:8 26.5007 
2 *38:8 *126:A 25.4236 
3 *38:8 *38:29 40.2121 
4 *38:29 *38:31 1.09786 
5 *38:31 *38:35 4.93 
6 *38:35 *38:53 40.6057 
7 *38:53 *38:61 31.6957 
8 *38:61 *132:A 43.4271 
9 *38:61 *133:A 45.25 
10 *38:53 *127:A 23 
11 *38:35 *129:A 23 
12 *38:31 *38:107 36.1936 
13 *38:107 *131:A 23 
14 *38:107 *38:124 43.4436 
15 *38:124 *130:A 23 
16 *38:29 *128:A 25.0714 
*END

*D_NET *39 0.00346598
*CONN
*I *112:A I *D sky130_fd_sc_hd__inv_2
*I *124:A1 I *D sky130_fd_sc_hd__a21oi_1
*I *123:A I *D sky130_fd_sc_hd__xor2_1
*I *145:X O *D sky130_fd_sc_hd__buf_1
*CAP
1 *112:A 0.000115776
2 *124:A1 0.000201577
3 *123:A 0
4 *145:X 0.000361913
5 *39:22 0.000703832
6 *39:10 0.000979945
7 *124:A1 *123:B 5.56279e-05
8 *124:A1 *45:12 3.75135e-05
9 *124:A1 *51:30 5.79559e-05
10 *39:10 *43:10 3.7122e-06
11 *39:22 *155:A 1.46594e-05
12 count[3] *39:22 0
13 *135:CLK *112:A 1.21592e-05
14 *137:CLK *124:A1 2.46906e-05
15 *7:12 *124:A1 4.32661e-05
16 *7:12 *39:22 7.71928e-05
17 *14:14 *39:22 0.000396624
18 *36:8 *39:22 2.77321e-05
19 *36:12 *39:22 6.09979e-06
20 *36:42 *124:A1 0.000299184
21 *36:42 *39:22 4.65192e-05
*RES
1 *145:X *39:10 42.6814 
2 *39:10 *39:22 25.5021 
3 *39:22 *123:A 23 
4 *39:22 *124:A1 29.0486 
5 *39:10 *112:A 40.0921 
*END

*D_NET *40 0.000406144
*CONN
*I *122:A I *D sky130_fd_sc_hd__xor2_1
*I *146:X O *D sky130_fd_sc_hd__dlygate4sd3_1
*CAP
1 *122:A 0
2 *146:X 0.000203072
3 *40:10 0.000203072
*RES
1 *146:X *40:10 41.0036 
2 *40:10 *122:A 38 
*END

*D_NET *41 0.00147992
*CONN
*I *120:A I *D sky130_fd_sc_hd__xor2_1
*I *147:X O *D sky130_fd_sc_hd__dlygate4sd3_1
*CAP
1 *120:A 0
2 *147:X 0.000207442
3 *41:10 0.000207442
4 *41:10 *54:18 0.000228562
5 *41:10 *54:34 0.000188934
6 *120:B *41:10 0.000417953
7 *33:14 *41:10 0.000229592
*RES
1 *147:X *41:10 30.9336 
2 *41:10 *120:A 23 
*END

*D_NET *42 0.000835269
*CONN
*I *116:A I *D sky130_fd_sc_hd__xor2_1
*I *118:A1 I *D sky130_fd_sc_hd__a21oi_1
*I *148:X O *D sky130_fd_sc_hd__dlygate4sd3_1
*CAP
1 *116:A 0
2 *118:A1 0
3 *148:X 0.000138539
4 *42:16 0.000162146
5 *42:6 0.000300684
6 *116:B *42:16 2.52012e-05
7 *118:A2 *42:16 0.000201355
8 *30:57 *42:16 7.34394e-06
*RES
1 *148:X *42:6 25.0507 
2 *42:6 *42:16 34.4329 
3 *42:16 *118:A1 23 
4 *42:6 *116:A 23 
*END

*D_NET *43 0.00172319
*CONN
*I *123:B I *D sky130_fd_sc_hd__xor2_1
*I *149:X O *D sky130_fd_sc_hd__dlygate4sd3_1
*CAP
1 *123:B 1.36998e-05
2 *149:X 0.000529088
3 *43:10 0.000542788
4 *43:10 *155:A 3.20957e-05
5 *124:A1 *123:B 5.56279e-05
6 *7:12 *123:B 3.22051e-05
7 *38:61 *43:10 0.000513976
8 *39:10 *43:10 3.7122e-06
*RES
1 *149:X *43:10 48.5229 
2 *43:10 *123:B 38.6214 
*END

*D_NET *44 0.000715935
*CONN
*I *115:A1 I *D sky130_fd_sc_hd__o21ba_1
*I *150:X O *D sky130_fd_sc_hd__dlygate4sd3_1
*CAP
1 *115:A1 7.05296e-05
2 *150:X 7.05296e-05
3 *115:A2 *115:A1 0.000251784
4 *125:A *115:A1 5.3304e-05
5 *38:35 *115:A1 0.000131473
6 *38:53 *115:A1 0.000138314
*RES
1 *150:X *115:A1 49.5007 
*END

*D_NET *45 0.00221057
*CONN
*I *124:B1 I *D sky130_fd_sc_hd__a21oi_1
*I *151:X O *D sky130_fd_sc_hd__dlygate4sd3_1
*CAP
1 *124:B1 0
2 *151:X 0.000921861
3 *45:12 0.000921861
4 *45:12 *151:A 2.64616e-05
5 *45:12 *53:22 0.000121509
6 *124:A1 *45:12 3.75135e-05
7 *137:CLK *45:12 6.82815e-05
8 *137:D *45:12 0.000100374
9 *137:RESET_B *45:12 1.03278e-05
10 *34:8 *45:12 2.38387e-06
*RES
1 *151:X *45:12 35.9464 
2 *45:12 *124:B1 23 
*END

*D_NET *46 0.00138897
*CONN
*I *125:B I *D sky130_fd_sc_hd__nor2_1
*I *152:X O *D sky130_fd_sc_hd__dlygate4sd3_1
*CAP
1 *125:B 2.26091e-05
2 *152:X 0.000398268
3 *46:10 0.000420877
4 *125:A *125:B 2.93431e-05
5 *38:29 *46:10 6.12484e-05
6 *38:31 *125:B 5.3304e-05
7 *38:107 *46:10 0.000403318
*RES
1 *152:X *46:10 46.0786 
2 *46:10 *125:B 38.6214 
*END

*D_NET *47 0.00143926
*CONN
*I *118:B1 I *D sky130_fd_sc_hd__a21oi_1
*I *153:X O *D sky130_fd_sc_hd__dlygate4sd3_1
*CAP
1 *118:B1 0.00019181
2 *153:X 0.00033864
3 *47:8 0.00053045
4 *47:8 *52:46 0.000223795
5 *47:8 *52:59 0.000141038
6 *32:10 *118:B1 1.3523e-05
*RES
1 *153:X *47:8 45.8921 
2 *47:8 *118:B1 41.48 
*END

*D_NET *48 0.00595795
*CONN
*I *113:A I *D sky130_fd_sc_hd__and3_1
*I *114:A I *D sky130_fd_sc_hd__and4_1
*I *145:A I *D sky130_fd_sc_hd__buf_1
*I *155:A I *D sky130_fd_sc_hd__clkbuf_4
*I *134:Q O *D sky130_fd_sc_hd__dfrtp_1
*CAP
1 *113:A 0
2 *114:A 0
3 *145:A 0.000214428
4 *155:A 0.000499202
5 *134:Q 0
6 *48:69 0.000588024
7 *48:48 0.000920453
8 *48:8 0.000838538
9 *48:4 0.000457337
10 *48:8 *51:30 5.56356e-05
11 *48:48 *114:B 9.64943e-05
12 *48:48 *50:32 2.46906e-05
13 *48:48 *51:20 2.71113e-06
14 *48:48 *51:30 0.000276314
15 *48:69 *113:C 2.67303e-05
16 *48:69 *114:B 4.08664e-05
17 *48:69 *49:66 0.000138607
18 *48:69 *50:16 6.69062e-05
19 *48:69 *50:32 4.93812e-05
20 *48:69 *51:20 2.4526e-05
21 *48:69 *53:22 7.52274e-05
22 *134:RESET_B *155:A 2.71586e-05
23 *134:RESET_B *48:8 2.55762e-05
24 *136:CLK *48:48 9.64943e-05
25 *136:CLK *48:69 5.3304e-05
26 *136:D *48:69 6.17437e-06
27 *152:A *48:48 0
28 *7:12 *155:A 5.22498e-05
29 *16:14 *48:48 1.17861e-05
30 *24:8 *48:69 0.000109343
31 *29:10 *48:69 0.00019012
32 *36:42 *155:A 0.000274654
33 *36:58 *48:48 6.10551e-06
34 *38:53 *48:48 0.000130823
35 *38:61 *145:A 0.000346491
36 *38:61 *155:A 9.20193e-05
37 *38:61 *48:8 5.62217e-05
38 *38:61 *48:48 3.6605e-05
39 *39:22 *155:A 1.46594e-05
40 *43:10 *155:A 3.20957e-05
*RES
1 *134:Q *48:4 23 
2 *48:4 *48:8 17.5271 
3 *48:8 *155:A 46.7621 
4 *48:8 *145:A 43.5721 
5 *48:4 *48:48 37.3743 
6 *48:48 *114:A 23 
7 *48:48 *48:69 41.9729 
8 *48:69 *113:A 23 
*END

*D_NET *49 0.00847928
*CONN
*I *156:A I *D sky130_fd_sc_hd__clkbuf_4
*I *149:A I *D sky130_fd_sc_hd__dlygate4sd3_1
*I *113:B I *D sky130_fd_sc_hd__and3_1
*I *114:B I *D sky130_fd_sc_hd__and4_1
*I *124:A2 I *D sky130_fd_sc_hd__a21oi_1
*I *135:Q O *D sky130_fd_sc_hd__dfrtp_1
*CAP
1 *156:A 0
2 *149:A 0
3 *113:B 0
4 *114:B 0.000117284
5 *124:A2 0.000275569
6 *135:Q 5.72117e-05
7 *49:96 0.000788601
8 *49:73 0.000881268
9 *49:66 0.000566958
10 *49:45 0.000800353
11 *49:35 0.000513017
12 *49:14 0.000769717
13 *49:10 0.00024712
14 *124:A2 *51:30 5.96343e-05
15 *49:45 *50:32 0.000179421
16 *49:45 *51:20 0.000138607
17 *49:45 *53:22 9.80309e-05
18 *49:66 *50:10 0
19 *49:66 *50:16 0.000126895
20 *49:66 *50:32 7.51453e-06
21 *49:96 *52:20 0.000110258
22 *49:96 *53:58 6.09348e-05
23 *49:96 *54:14 0.00018675
24 *115:B1_N *49:35 2.31687e-05
25 *136:CLK *49:45 2.02872e-05
26 *136:D *49:66 3.65917e-05
27 *152:A *49:35 0.000108129
28 *152:A *49:45 1.03972e-05
29 *12:15 *49:66 5.70735e-05
30 *16:14 *124:A2 0.000106706
31 *16:14 *49:35 9.77405e-05
32 *22:8 *124:A2 8.50366e-05
33 *22:8 *49:14 0.000115407
34 *29:10 *49:66 0.000387076
35 *30:10 *49:35 1.85903e-05
36 *30:24 *49:10 2.07484e-05
37 *30:24 *49:14 0.000130654
38 *30:24 *49:35 6.08617e-05
39 *30:24 *49:73 4.0028e-05
40 *30:24 *49:96 0.000115272
41 *35:14 *49:96 1.24376e-05
42 *36:58 *124:A2 0.000123075
43 *37:10 *49:96 0.000396632
44 *37:30 *49:96 0.000193873
45 *38:8 *49:66 3.85196e-05
46 *38:53 *49:35 1.98624e-05
47 *48:48 *114:B 9.64943e-05
48 *48:69 *114:B 4.08664e-05
49 *48:69 *49:66 0.000138607
*RES
1 *135:Q *49:10 38.9425 
2 *49:10 *49:14 3.17964 
3 *49:14 *124:A2 43.4893 
4 *49:14 *49:35 35.51 
5 *49:35 *49:45 48.1279 
6 *49:45 *114:B 24.5743 
7 *49:45 *49:66 40.5436 
8 *49:66 *113:B 23 
9 *49:10 *49:73 2.08179 
10 *49:73 *149:A 38 
11 *49:73 *49:96 48.7671 
12 *49:96 *156:A 38 
*END

*D_NET *50 0.00456181
*CONN
*I *151:A I *D sky130_fd_sc_hd__dlygate4sd3_1
*I *157:A I *D sky130_fd_sc_hd__clkbuf_4
*I *113:C I *D sky130_fd_sc_hd__and3_1
*I *114:C I *D sky130_fd_sc_hd__and4_1
*I *136:Q O *D sky130_fd_sc_hd__dfrtp_1
*CAP
1 *151:A 0.000237242
2 *157:A 0
3 *113:C 2.34964e-05
4 *114:C 0
5 *136:Q 0.000421137
6 *50:32 0.000464421
7 *50:16 0.000705719
8 *50:14 0.00036474
9 *50:10 0.000805317
10 *151:A *51:10 1.59094e-05
11 *50:10 *51:10 8.29264e-05
12 *50:10 *51:20 8.91468e-07
13 *50:32 *114:D 3.81033e-05
14 *50:32 *51:20 2.46906e-05
15 *50:32 *53:22 6.79254e-05
16 *50:32 *53:30 9.58228e-05
17 *136:CLK *50:32 9.41704e-05
18 *136:RESET_B *50:10 0.00010252
19 *152:A *50:32 0.000155844
20 *12:15 *50:14 4.9986e-05
21 *16:14 *50:32 0
22 *21:10 *50:10 4.67227e-05
23 *21:10 *50:14 0.000133637
24 *38:8 *50:16 9.90118e-05
25 *38:29 *50:10 1.22698e-05
26 *38:29 *50:14 1.13013e-05
27 *45:12 *151:A 2.64616e-05
28 *48:48 *50:32 2.46906e-05
29 *48:69 *113:C 2.67303e-05
30 *48:69 *50:16 6.69062e-05
31 *48:69 *50:32 4.93812e-05
32 *49:45 *50:32 0.000179421
33 *49:66 *50:10 0
34 *49:66 *50:16 0.000126895
35 *49:66 *50:32 7.51453e-06
*RES
1 *136:Q *50:10 44.2143 
2 *50:10 *50:14 17.9621 
3 *50:14 *50:16 4.90929 
4 *50:16 *50:32 40.5436 
5 *50:32 *114:C 23 
6 *50:16 *113:C 23.725 
7 *50:14 *157:A 23 
8 *50:10 *151:A 41.48 
*END

*D_NET *51 0.00422564
*CONN
*I *150:A I *D sky130_fd_sc_hd__dlygate4sd3_1
*I *114:D I *D sky130_fd_sc_hd__and4_1
*I *158:A I *D sky130_fd_sc_hd__clkbuf_4
*I *137:Q O *D sky130_fd_sc_hd__dfrtp_1
*CAP
1 *150:A 8.62203e-05
2 *114:D 3.25912e-05
3 *158:A 0
4 *137:Q 0.000164653
5 *51:30 0.000352548
6 *51:20 0.00104526
7 *51:10 0.00091099
8 *124:A1 *51:30 5.79559e-05
9 *124:A2 *51:30 5.96343e-05
10 *134:RESET_B *51:30 0.000144599
11 *136:D *51:20 0.000119299
12 *151:A *51:10 1.59094e-05
13 *15:10 *51:20 4.96811e-06
14 *29:10 *51:10 0
15 *30:10 *51:30 5.56356e-05
16 *36:42 *51:30 5.56279e-05
17 *36:58 *51:30 0.000125167
18 *38:29 *150:A 0.000116256
19 *38:29 *51:10 0.000233921
20 *48:8 *51:30 5.56356e-05
21 *48:48 *51:20 2.71113e-06
22 *48:48 *51:30 0.000276314
23 *48:69 *51:20 2.4526e-05
24 *49:45 *51:20 0.000138607
25 *50:10 *51:10 8.29264e-05
26 *50:10 *51:20 8.91468e-07
27 *50:32 *114:D 3.81033e-05
28 *50:32 *51:20 2.46906e-05
*RES
1 *137:Q *51:10 41.7596 
2 *51:10 *51:20 24.2075 
3 *51:20 *51:30 37.8921 
4 *51:30 *158:A 23 
5 *51:20 *114:D 23.8493 
6 *51:10 *150:A 39.7296 
*END

*D_NET *52 0.00464192
*CONN
*I *148:A I *D sky130_fd_sc_hd__dlygate4sd3_1
*I *159:A I *D sky130_fd_sc_hd__clkbuf_4
*I *117:A I *D sky130_fd_sc_hd__and3_1
*I *121:A I *D sky130_fd_sc_hd__and4_1
*I *138:Q O *D sky130_fd_sc_hd__dfrtp_1
*CAP
1 *148:A 0
2 *159:A 0
3 *117:A 1.85311e-05
4 *121:A 0
5 *138:Q 0.000204493
6 *52:59 0.00012604
7 *52:46 0.000333478
8 *52:20 0.000198173
9 *52:10 0.000701673
10 *52:8 0.000923577
11 *52:6 0.000435664
12 *52:10 *53:43 1.14801e-05
13 *52:20 *147:A 8.17328e-05
14 *52:20 *53:58 0.000393832
15 *52:20 *54:18 0.000231039
16 *138:RESET_B *52:6 9.32992e-05
17 *26:8 *52:46 0.000137744
18 *30:57 *117:A 2.24698e-05
19 *30:57 *52:10 0.000115715
20 *30:57 *52:20 3.5342e-05
21 *38:124 *52:46 0.000102551
22 *47:8 *52:46 0.000223795
23 *47:8 *52:59 0.000141038
24 *49:96 *52:20 0.000110258
*RES
1 *138:Q *52:6 25.5271 
2 *52:6 *52:8 1.09786 
3 *52:8 *52:10 6.33857 
4 *52:10 *52:20 35.655 
5 *52:20 *121:A 23 
6 *52:10 *117:A 23.4971 
7 *52:8 *52:46 38.1407 
8 *52:46 *159:A 23 
9 *52:6 *52:59 32.5271 
10 *52:59 *148:A 23 
*END

*D_NET *53 0.00723137
*CONN
*I *153:A I *D sky130_fd_sc_hd__dlygate4sd3_1
*I *121:B I *D sky130_fd_sc_hd__and4_1
*I *117:B I *D sky130_fd_sc_hd__and3_1
*I *160:A I *D sky130_fd_sc_hd__clkbuf_4
*I *139:Q O *D sky130_fd_sc_hd__dfrtp_1
*CAP
1 *153:A 0.000320847
2 *121:B 0
3 *117:B 8.4123e-05
4 *160:A 0
5 *139:Q 0
6 *53:58 0.000564814
7 *53:43 0.00106011
8 *53:30 0.000182125
9 *53:22 0.00124156
10 *53:8 0.00170807
11 *53:4 0.000558309
12 *53:58 *147:A 2.02872e-05
13 *53:58 *54:18 4.49877e-05
14 *134:RESET_B *53:22 3.79537e-05
15 *138:CLK *117:B 5.11621e-05
16 *138:CLK *53:43 2.86398e-05
17 *139:RESET_B *153:A 6.17437e-06
18 *139:RESET_B *53:8 9.72829e-05
19 *143:A *53:30 0
20 *152:A *53:22 0
21 *15:10 *53:22 5.40266e-05
22 *24:8 *53:22 1.78353e-05
23 *29:10 *53:22 0.000148503
24 *30:57 *53:43 1.96141e-05
25 *30:57 *53:58 2.59343e-05
26 *34:8 *53:22 3.42479e-05
27 *35:37 *53:22 0
28 *45:12 *53:22 0.000121509
29 *48:69 *53:22 7.52274e-05
30 *49:45 *53:22 9.80309e-05
31 *49:96 *53:58 6.09348e-05
32 *50:32 *53:22 6.79254e-05
33 *50:32 *53:30 9.58228e-05
34 *52:10 *53:43 1.14801e-05
35 *52:20 *53:58 0.000393832
*RES
1 *139:Q *53:4 23 
2 *53:4 *53:8 18.0036 
3 *53:8 *53:22 47.6839 
4 *53:22 *53:30 33.5836 
5 *53:30 *160:A 23 
6 *53:8 *53:43 21.5871 
7 *53:43 *117:B 24.0979 
8 *53:43 *53:58 37.8714 
9 *53:58 *121:B 23 
10 *53:4 *153:A 27.3293 
*END

*D_NET *54 0.00334903
*CONN
*I *147:A I *D sky130_fd_sc_hd__dlygate4sd3_1
*I *121:C I *D sky130_fd_sc_hd__and4_1
*I *161:A I *D sky130_fd_sc_hd__clkbuf_4
*I *140:Q O *D sky130_fd_sc_hd__dfrtp_1
*CAP
1 *147:A 8.16293e-05
2 *121:C 0
3 *161:A 0
4 *140:Q 0.000223921
5 *54:34 0.000484477
6 *54:18 0.000607593
7 *54:16 0.000204745
8 *54:14 0.000223921
9 *54:34 *162:A 0.000233367
10 *121:D *54:34 2.93335e-05
11 *133:A *54:34 3.84847e-05
12 *140:CLK *54:14 5.3304e-05
13 *11:8 *54:34 1.47709e-05
14 *30:32 *54:14 7.89235e-05
15 *33:14 *54:34 5.79559e-05
16 *37:30 *54:14 3.43144e-05
17 *41:10 *54:18 0.000228562
18 *41:10 *54:34 0.000188934
19 *49:96 *54:14 0.00018675
20 *52:20 *147:A 8.17328e-05
21 *52:20 *54:18 0.000231039
22 *53:58 *147:A 2.02872e-05
23 *53:58 *54:18 4.49877e-05
*RES
1 *140:Q *54:14 42.7021 
2 *54:14 *54:16 15 
3 *54:16 *54:18 3.95643 
4 *54:18 *54:34 40.2329 
5 *54:34 *161:A 23 
6 *54:18 *121:C 23 
7 *54:16 *147:A 24.5743 
*END

*D_NET *55 0.00307362
*CONN
*I *162:A I *D sky130_fd_sc_hd__clkbuf_4
*I *146:A I *D sky130_fd_sc_hd__dlygate4sd3_1
*I *141:Q O *D sky130_fd_sc_hd__dfrtp_1
*CAP
1 *162:A 0.000518114
2 *146:A 0.00014659
3 *141:Q 0.000455738
4 *55:10 0.00112044
5 *140:CLK *146:A 3.8725e-05
6 *141:CLK *55:10 0.000295005
7 *10:10 *162:A 0
8 *11:8 *162:A 5.40337e-05
9 *19:12 *162:A 0.000113244
10 *20:14 *146:A 2.23467e-05
11 *20:14 *162:A 4.91848e-05
12 *20:14 *55:10 2.68248e-05
13 *54:34 *162:A 0.000233367
*RES
1 *141:Q *55:10 44.8875 
2 *55:10 *146:A 40.4132 
3 *55:10 *162:A 47.5389 
*END
