*SPEF "ieee 1481-1999"
*DESIGN "counter"
*DATE "11:11:11 Fri 11 11, 1111"
*VENDOR "OpenRCX"
*PROGRAM "Parallel Extraction"
*VERSION "1.0"
*DESIGN_FLOW "NAME_SCOPE LOCAL" "PIN_CAP NONE"
*DIVIDER /
*DELIMITER :
*BUS_DELIMITER []
*T_UNIT 1 NS
*C_UNIT 1 PF
*R_UNIT 1 OHM
*L_UNIT 1 HENRY

*NAME_MAP
*3 clk
*4 count[0]
*5 count[1]
*6 count[2]
*7 count[3]
*8 count[4]
*9 count[5]
*10 count[6]
*11 count[7]
*12 reset
*13 _00_
*14 _01_
*15 _02_
*16 _03_
*17 _04_
*18 _05_
*19 _06_
*20 _07_
*21 _08_
*22 _09_
*23 _10_
*24 _11_
*25 _12_
*26 _13_
*27 _14_
*28 _15_
*29 _16_
*30 _17_
*31 _18_
*32 _19_
*33 _20_
*34 _21_
*35 clknet_0_clk
*36 clknet_1_0__leaf_clk
*37 clknet_1_1__leaf_clk
*38 net1
*39 net10
*40 net11
*41 net12
*42 net13
*43 net14
*44 net15
*45 net16
*46 net17
*47 net18
*48 net2
*49 net3
*50 net4
*51 net5
*52 net6
*53 net7
*54 net8
*55 net9
*56 FILLER_0_0_3
*57 FILLER_0_0_55
*58 FILLER_0_0_7
*59 FILLER_0_1_9
*60 FILLER_0_2_3
*61 FILLER_0_2_56
*62 FILLER_0_3_3
*63 FILLER_0_3_37
*64 FILLER_0_4_15
*65 FILLER_0_4_3
*66 FILLER_0_4_49
*67 FILLER_0_5_15
*68 FILLER_0_5_3
*69 FILLER_0_5_44
*70 FILLER_0_6_3
*71 FILLER_0_8_20
*72 FILLER_0_8_44
*73 FILLER_0_8_56
*74 FILLER_0_9_19
*75 FILLER_0_9_29
*76 FILLER_0_9_3
*77 FILLER_0_9_37
*78 FILLER_0_9_43
*79 FILLER_0_9_55
*80 PHY_0
*81 PHY_1
*82 PHY_10
*83 PHY_11
*84 PHY_12
*85 PHY_13
*86 PHY_14
*87 PHY_15
*88 PHY_16
*89 PHY_17
*90 PHY_18
*91 PHY_19
*92 PHY_2
*93 PHY_3
*94 PHY_4
*95 PHY_5
*96 PHY_6
*97 PHY_7
*98 PHY_8
*99 PHY_9
*100 TAP_20
*101 TAP_21
*102 TAP_22
*103 TAP_23
*104 TAP_24
*105 TAP_25
*106 TAP_26
*107 TAP_27
*108 TAP_28
*109 TAP_29
*110 TAP_30
*111 TAP_31
*112 _22_
*113 _23_
*114 _24_
*115 _25_
*116 _26_
*117 _27_
*118 _28_
*119 _29_
*120 _30_
*121 _31_
*122 _32_
*123 _33_
*124 _34_
*125 _35_
*126 _36_
*127 _37_
*128 _38_
*129 _39_
*130 _40_
*131 _41_
*132 _42_
*133 _43_
*134 _44_
*135 _45_
*136 _46_
*137 _47_
*138 _48_
*139 _49_
*140 _50_
*141 _51_
*142 clkbuf_0_clk
*143 clkbuf_1_0__f_clk
*144 clkbuf_1_1__f_clk
*145 hold1
*146 hold2
*147 hold3
*148 hold4
*149 hold5
*150 hold6
*151 hold7
*152 hold8
*153 hold9
*154 input1
*155 output2
*156 output3
*157 output4
*158 output5
*159 output6
*160 output7
*161 output8
*162 output9

*PORTS
clk I
count[0] O
count[1] O
count[2] O
count[3] O
count[4] O
count[5] O
count[6] O
count[7] O
reset I

*D_NET *3 0.00276084
*CONN
*P clk I
*I *142:A I *D sky130_fd_sc_hd__clkbuf_16
*CAP
1 clk 0.00138042
2 *142:A 0.00138042
3 *142:A *130:A 0
*RES
1 clk *142:A 26.835 
*END

*D_NET *4 0.00168092
*CONN
*P count[0] O
*I *155:X O *D sky130_fd_sc_hd__clkbuf_4
*CAP
1 count[0] 0.000797233
2 *155:X 0.000797233
3 count[0] count[3] 8.64565e-05
*RES
1 *155:X count[0] 17.055 
*END

*D_NET *5 0.000796548
*CONN
*P count[1] O
*I *156:X O *D sky130_fd_sc_hd__clkbuf_4
*CAP
1 count[1] 0.000398274
2 *156:X 0.000398274
*RES
1 *156:X count[1] 10.695 
*END

*D_NET *6 0.00108668
*CONN
*P count[2] O
*I *157:X O *D sky130_fd_sc_hd__clkbuf_4
*CAP
1 count[2] 0.000513033
2 *157:X 0.000513033
3 count[2] *126:A 4.89295e-05
4 count[2] *134:RESET_B 1.16854e-05
*RES
1 *157:X count[2] 12.375 
*END

*D_NET *7 0.00185665
*CONN
*P count[3] O
*I *158:X O *D sky130_fd_sc_hd__clkbuf_4
*CAP
1 count[3] 0.000786688
2 *158:X 0.000786688
3 count[3] *123:B 2.86975e-05
4 count[3] *124:A1 4.1453e-05
5 count[3] *155:A 5.67938e-05
6 count[3] *39:22 6.98693e-05
7 count[0] count[3] 8.64565e-05
*RES
1 *158:X count[3] 13.2635 
*END

*D_NET *8 0.00133213
*CONN
*P count[4] O
*I *159:X O *D sky130_fd_sc_hd__clkbuf_4
*CAP
1 count[4] 0.000515194
2 *159:X 0.000515194
3 count[4] *130:A 0.000301741
*RES
1 *159:X count[4] 8.41503 
*END

*D_NET *9 0.00102866
*CONN
*P count[5] O
*I *160:X O *D sky130_fd_sc_hd__clkbuf_4
*CAP
1 count[5] 0.000514332
2 *160:X 0.000514332
*RES
1 *160:X count[5] 11.82 
*END

*D_NET *10 0.000908054
*CONN
*P count[6] O
*I *161:X O *D sky130_fd_sc_hd__clkbuf_4
*CAP
1 count[6] 0.000443578
2 *161:X 0.000443578
3 count[6] count[7] 2.08974e-05
4 count[6] *162:A 0
*RES
1 *161:X count[6] 7.69677 
*END

*D_NET *11 0.00185208
*CONN
*P count[7] O
*I *162:X O *D sky130_fd_sc_hd__clkbuf_4
*CAP
1 count[7] 0.000884032
2 *162:X 0.000884032
3 count[7] *161:A 1.42598e-05
4 count[7] *162:A 4.8854e-05
5 count[6] count[7] 2.08974e-05
*RES
1 *162:X count[7] 16.56 
*END

*D_NET *12 0.0020192
*CONN
*P reset I
*I *154:A I *D sky130_fd_sc_hd__clkbuf_4
*CAP
1 reset 0.000872261
2 *154:A 0.000872261
3 *154:A *113:B 5.43444e-05
4 *154:A *134:RESET_B 0.000164808
5 *154:A *50:14 5.55251e-05
*RES
1 reset *154:A 7.7481 
*END

*D_NET *13 0.000623979
*CONN
*I *134:D I *D sky130_fd_sc_hd__dfrtp_1
*I *112:Y O *D sky130_fd_sc_hd__inv_2
*CAP
1 *134:D 0.00029389
2 *112:Y 0.00029389
3 *134:D *134:CLK 3.61993e-05
*RES
1 *112:Y *134:D 10.6237 
*END

*D_NET *14 0.000934638
*CONN
*I *135:D I *D sky130_fd_sc_hd__dfrtp_1
*I *123:X O *D sky130_fd_sc_hd__xor2_1
*CAP
1 *135:D 0.000168651
2 *123:X 0.000168651
3 *135:D *135:CLK 0.000169946
4 *135:D *36:8 1.21256e-05
5 *135:D *36:12 9.23635e-05
6 *135:D *39:22 0.000322901
*RES
1 *123:X *135:D 12.3 
*END

*D_NET *15 0.00109314
*CONN
*I *136:D I *D sky130_fd_sc_hd__dfrtp_1
*I *125:Y O *D sky130_fd_sc_hd__nor2_1
*CAP
1 *136:D 0.000325049
2 *125:Y 0.000325049
3 *136:D *113:A 5.83121e-06
4 *136:D *113:B 3.59784e-05
5 *136:D *125:A 0.000231781
6 *136:D *160:A 5.2052e-05
7 *136:D *29:12 2.53191e-06
8 *136:D *51:20 0.000114865
*RES
1 *125:Y *136:D 12.585 
*END

*D_NET *16 0.00131394
*CONN
*I *137:D I *D sky130_fd_sc_hd__dfrtp_1
*I *115:X O *D sky130_fd_sc_hd__o21ba_1
*CAP
1 *137:D 0.000359115
2 *115:X 0.000359115
3 *137:D *114:C 0
4 *137:D *124:A2 0.000103588
5 *137:D *124:B1 9.02878e-05
6 *137:D *135:RESET_B 9.16019e-05
7 *137:D *137:CLK 6.69608e-06
8 *137:D *152:A 4.57056e-05
9 *137:D *30:24 8.41307e-05
10 *137:D *38:53 7.64159e-05
11 *137:D *48:48 1.3155e-05
12 *137:D *49:45 8.41307e-05
*RES
1 *115:X *137:D 14.235 
*END

*D_NET *17 0.00043808
*CONN
*I *138:D I *D sky130_fd_sc_hd__dfrtp_1
*I *116:X O *D sky130_fd_sc_hd__xor2_1
*CAP
1 *138:D 0.000173883
2 *116:X 0.000173883
3 *138:D *30:57 9.03138e-05
*RES
1 *116:X *138:D 9.99 
*END

*D_NET *18 0.00133995
*CONN
*I *139:D I *D sky130_fd_sc_hd__dfrtp_1
*I *119:Y O *D sky130_fd_sc_hd__nor2_1
*CAP
1 *139:D 0.000400443
2 *119:Y 0.000400443
3 *139:D *119:A 4.87479e-05
4 *139:D *121:D 1.58088e-05
5 *139:D *140:RESET_B 7.44842e-05
6 *139:D *141:CLK 5.83121e-06
7 *139:D *30:36 0.000256477
8 *139:D *31:10 7.7379e-05
9 *139:D *37:14 6.03315e-05
*RES
1 *119:Y *139:D 15.21 
*END

*D_NET *19 0.000675014
*CONN
*I *140:D I *D sky130_fd_sc_hd__dfrtp_1
*I *120:X O *D sky130_fd_sc_hd__xor2_1
*CAP
1 *140:D 0.000137132
2 *120:X 0.000137132
3 *140:D *122:B 0.000102396
4 *140:D *140:CLK 4.92695e-05
5 *140:D *141:D 0.00015672
6 *140:D *162:A 9.23635e-05
*RES
1 *120:X *140:D 10.785 
*END

*D_NET *20 0.000898791
*CONN
*I *141:D I *D sky130_fd_sc_hd__dfrtp_1
*I *122:X O *D sky130_fd_sc_hd__xor2_1
*CAP
1 *141:D 0.000286888
2 *122:X 0.000286888
3 *141:D *122:B 2.44572e-05
4 *141:D *141:CLK 5.38791e-05
5 *141:D *146:A 1.84465e-05
6 *141:D *162:A 4.552e-05
7 *141:D *55:10 2.59925e-05
8 *140:D *141:D 0.00015672
*RES
1 *122:X *141:D 12.3787 
*END

*D_NET *21 0.00360934
*CONN
*I *134:RESET_B I *D sky130_fd_sc_hd__dfrtp_1
*I *126:Y O *D sky130_fd_sc_hd__inv_2
*CAP
1 *134:RESET_B 0.00132559
2 *126:Y 0.00132559
3 *134:RESET_B *126:A 4.57877e-05
4 *134:RESET_B *136:CLK 6.86109e-05
5 *134:RESET_B *143:A 7.19377e-05
6 *134:RESET_B *155:A 3.06743e-05
7 *134:RESET_B *158:A 0.000120141
8 *134:RESET_B *160:A 4.03314e-05
9 *134:RESET_B *38:8 4.77769e-05
10 *134:RESET_B *38:29 0.000140895
11 *134:RESET_B *38:61 4.20634e-05
12 *134:RESET_B *48:8 2.34984e-05
13 *134:RESET_B *50:10 3.91191e-05
14 *134:RESET_B *50:14 0.00011083
15 count[2] *134:RESET_B 1.16854e-05
16 *154:A *134:RESET_B 0.000164808
*RES
1 *126:Y *134:RESET_B 13.6504 
*END

*D_NET *22 0.000472413
*CONN
*I *135:RESET_B I *D sky130_fd_sc_hd__dfrtp_1
*I *127:Y O *D sky130_fd_sc_hd__inv_2
*CAP
1 *135:RESET_B 8.98238e-05
2 *127:Y 8.98238e-05
3 *135:RESET_B *124:A2 7.01303e-05
4 *135:RESET_B *30:24 2.20753e-05
5 *135:RESET_B *38:53 1.49348e-05
6 *135:RESET_B *49:14 9.40234e-05
7 *137:D *135:RESET_B 9.16019e-05
*RES
1 *127:Y *135:RESET_B 7.8875 
*END

*D_NET *23 0.000519415
*CONN
*I *136:RESET_B I *D sky130_fd_sc_hd__dfrtp_1
*I *128:Y O *D sky130_fd_sc_hd__inv_2
*CAP
1 *136:RESET_B 0.000214031
2 *128:Y 0.000214031
3 *136:RESET_B *50:10 9.13537e-05
*RES
1 *128:Y *136:RESET_B 9.1175 
*END

*D_NET *24 0.000874699
*CONN
*I *137:RESET_B I *D sky130_fd_sc_hd__dfrtp_1
*I *129:Y O *D sky130_fd_sc_hd__inv_2
*CAP
1 *137:RESET_B 0.000258947
2 *129:Y 0.000258947
3 *137:RESET_B *113:A 9.03081e-05
4 *137:RESET_B *124:B1 1.11872e-05
5 *137:RESET_B *160:A 1.93348e-05
6 *137:RESET_B *29:12 0.000235974
*RES
1 *129:Y *137:RESET_B 10.2125 
*END

*D_NET *25 0.000324795
*CONN
*I *138:RESET_B I *D sky130_fd_sc_hd__dfrtp_1
*I *130:Y O *D sky130_fd_sc_hd__inv_2
*CAP
1 *138:RESET_B 9.94382e-05
2 *130:Y 9.94382e-05
3 *138:RESET_B *130:A 4.63425e-05
4 *138:RESET_B *52:6 7.9576e-05
*RES
1 *130:Y *138:RESET_B 7.4675 
*END

*D_NET *26 0.000481328
*CONN
*I *139:RESET_B I *D sky130_fd_sc_hd__dfrtp_1
*I *131:Y O *D sky130_fd_sc_hd__inv_2
*CAP
1 *139:RESET_B 0.00013736
2 *131:Y 0.00013736
3 *139:RESET_B *153:A 5.83121e-06
4 *139:RESET_B *159:A 0.000112589
5 *139:RESET_B *53:8 8.81868e-05
*RES
1 *131:Y *139:RESET_B 8.4125 
*END

*D_NET *27 0.000311069
*CONN
*I *140:RESET_B I *D sky130_fd_sc_hd__dfrtp_1
*I *132:Y O *D sky130_fd_sc_hd__inv_2
*CAP
1 *140:RESET_B 5.14171e-05
2 *132:Y 5.14171e-05
3 *140:RESET_B *121:D 0.00013375
4 *139:D *140:RESET_B 7.44842e-05
*RES
1 *132:Y *140:RESET_B 7.235 
*END

*D_NET *28 0.000786635
*CONN
*I *141:RESET_B I *D sky130_fd_sc_hd__dfrtp_1
*I *133:Y O *D sky130_fd_sc_hd__inv_2
*CAP
1 *141:RESET_B 0.000206835
2 *133:Y 0.000206835
3 *141:RESET_B *122:B 4.66108e-05
4 *141:RESET_B *133:A 0.000326354
*RES
1 *133:Y *141:RESET_B 9.98 
*END

*D_NET *29 0.00275431
*CONN
*I *125:A I *D sky130_fd_sc_hd__nor2_1
*I *115:A2 I *D sky130_fd_sc_hd__o21ba_1
*I *113:X O *D sky130_fd_sc_hd__and3_1
*CAP
1 *125:A 0.000189883
2 *115:A2 0.00017664
3 *113:X 0.000222215
4 *29:12 0.000588737
5 *115:A2 *115:A1 0.000214984
6 *115:A2 *115:B1_N 1.20052e-05
7 *115:A2 *38:53 2.83649e-05
8 *125:A *115:A1 4.66108e-05
9 *125:A *125:B 2.68526e-05
10 *125:A *128:A 3.96099e-05
11 *125:A *38:31 8.34281e-06
12 *125:A *38:35 0.000129177
13 *29:12 *113:A 0.000157264
14 *29:12 *113:B 0.00032123
15 *29:12 *160:A 0.000122108
16 *29:12 *51:10 0
17 *136:D *125:A 0.000231781
18 *136:D *29:12 2.53191e-06
19 *137:RESET_B *29:12 0.000235974
*RES
1 *113:X *29:12 11.6 
2 *29:12 *115:A2 4.735 
3 *29:12 *125:A 6.115 
*END

*D_NET *30 0.00535297
*CONN
*I *115:B1_N I *D sky130_fd_sc_hd__o21ba_1
*I *121:D I *D sky130_fd_sc_hd__and4_1
*I *118:A2 I *D sky130_fd_sc_hd__a21oi_1
*I *116:B I *D sky130_fd_sc_hd__xor2_1
*I *117:C I *D sky130_fd_sc_hd__and3_1
*I *114:X O *D sky130_fd_sc_hd__and4_1
*CAP
1 *115:B1_N 2.38469e-05
2 *121:D 0.000317719
3 *118:A2 0.000104528
4 *116:B 5.64708e-06
5 *117:C 0
6 *114:X 0.000104345
7 *30:57 0.000376126
8 *30:36 0.000572612
9 *30:24 0.001082
10 *30:12 0.000585813
11 *115:B1_N *38:53 4.10367e-05
12 *115:B1_N *49:45 2.10214e-05
13 *116:B *118:A1 2.02052e-05
14 *118:A2 *118:A1 0.00016524
15 *121:D *161:A 2.68464e-05
16 *121:D *31:10 7.01303e-05
17 *30:12 *158:A 4.77757e-05
18 *30:12 *38:53 0.000109198
19 *30:12 *49:45 2.12738e-05
20 *30:24 *156:A 0.000107939
21 *30:24 *38:53 4.66108e-05
22 *30:24 *49:10 1.9872e-05
23 *30:24 *49:14 0.000106024
24 *30:24 *49:45 5.74791e-05
25 *30:24 *49:73 4.35709e-05
26 *30:36 *132:A 4.8854e-05
27 *30:36 *138:CLK 1.83267e-05
28 *30:36 *140:CLK 4.41506e-05
29 *30:36 *141:CLK 2.44338e-05
30 *30:36 *31:10 4.66108e-05
31 *30:36 *37:10 3.5954e-05
32 *30:36 *37:30 6.38108e-05
33 *30:36 *54:16 6.56036e-05
34 *30:57 *117:A 1.8279e-05
35 *30:57 *118:A1 7.98007e-06
36 *30:57 *121:A 3.15672e-05
37 *30:57 *121:B 2.92538e-05
38 *30:57 *138:CLK 0.000105661
39 *30:57 *52:10 9.96098e-05
40 *30:57 *53:43 2.14569e-05
41 *115:A2 *115:B1_N 1.20052e-05
42 *135:RESET_B *30:24 2.20753e-05
43 *137:D *30:24 8.41307e-05
44 *138:D *30:57 9.03138e-05
45 *139:D *121:D 1.58088e-05
46 *139:D *30:36 0.000256477
47 *140:RESET_B *121:D 0.00013375
*RES
1 *114:X *30:12 7.43 
2 *30:12 *30:24 11.06 
3 *30:24 *30:36 12.015 
4 *30:36 *117:C 1.6 
5 *30:36 *30:57 7.6925 
6 *30:57 *116:B 3.8325 
7 *30:57 *118:A2 6.1725 
8 *30:24 *121:D 8.79 
9 *30:12 *115:B1_N 2.41 
*END

*D_NET *31 0.00194691
*CONN
*I *119:A I *D sky130_fd_sc_hd__nor2_1
*I *120:B I *D sky130_fd_sc_hd__xor2_1
*I *117:X O *D sky130_fd_sc_hd__and3_1
*CAP
1 *119:A 9.86505e-05
2 *120:B 0.000242756
3 *117:X 0.000276151
4 *31:10 0.000617557
5 *120:B *120:A 0.000359135
6 *120:B *122:B 4.65706e-05
7 *31:10 *140:CLK 6.32176e-05
8 *121:D *31:10 7.01303e-05
9 *139:D *119:A 4.87479e-05
10 *139:D *31:10 7.7379e-05
11 *30:36 *31:10 4.66108e-05
*RES
1 *117:X *31:10 7.665 
2 *31:10 *120:B 8.205 
3 *31:10 *119:A 5.49 
*END

*D_NET *32 0.000850326
*CONN
*I *119:B I *D sky130_fd_sc_hd__nor2_1
*I *118:Y O *D sky130_fd_sc_hd__a21oi_1
*CAP
1 *119:B 0.000419454
2 *118:Y 0.000419454
3 *119:B *118:B1 1.14169e-05
*RES
1 *118:Y *119:B 9.2 
*END

*D_NET *33 0.00117868
*CONN
*I *122:B I *D sky130_fd_sc_hd__xor2_1
*I *121:X O *D sky130_fd_sc_hd__and4_1
*CAP
1 *122:B 0.000356487
2 *121:X 0.000356487
3 *122:B *120:A 0.000196744
4 *122:B *161:A 4.89295e-05
5 *120:B *122:B 4.65706e-05
6 *140:D *122:B 0.000102396
7 *141:D *122:B 2.44572e-05
8 *141:RESET_B *122:B 4.66108e-05
*RES
1 *121:X *122:B 9.92 
*END

*D_NET *34 0.00213939
*CONN
*I *152:A I *D sky130_fd_sc_hd__dlygate4sd3_1
*I *124:Y O *D sky130_fd_sc_hd__a21oi_1
*CAP
1 *152:A 0.000675396
2 *124:Y 0.000675396
3 *152:A *114:C 0.000129376
4 *152:A *124:B1 2.59934e-06
5 *152:A *136:CLK 1.7635e-05
6 *152:A *137:CLK 8.7526e-05
7 *152:A *143:A 0.000100277
8 *152:A *144:A 0.000273103
9 *152:A *160:A 3.30017e-05
10 *152:A *48:48 0
11 *152:A *49:45 9.93725e-05
12 *137:D *152:A 4.57056e-05
*RES
1 *124:Y *152:A 18.3862 
*END

*D_NET *35 0.00328411
*CONN
*I *143:A I *D sky130_fd_sc_hd__clkbuf_16
*I *144:A I *D sky130_fd_sc_hd__clkbuf_16
*I *142:X O *D sky130_fd_sc_hd__clkbuf_16
*CAP
1 *143:A 0.00119368
2 *144:A 0.000216917
3 *142:X 0
4 *35:4 0.00141059
5 *143:A *136:CLK 6.73178e-06
6 *143:A *160:A 0
7 *144:A *156:A 1.08758e-05
8 *134:RESET_B *143:A 7.19377e-05
9 *152:A *143:A 0.000100277
10 *152:A *144:A 0.000273103
*RES
1 *142:X *35:4 1.6 
2 *35:4 *144:A 9.755 
3 *35:4 *143:A 11.8276 
*END

*D_NET *36 0.00445883
*CONN
*I *137:CLK I *D sky130_fd_sc_hd__dfrtp_1
*I *136:CLK I *D sky130_fd_sc_hd__dfrtp_1
*I *135:CLK I *D sky130_fd_sc_hd__dfrtp_1
*I *134:CLK I *D sky130_fd_sc_hd__dfrtp_1
*I *143:X O *D sky130_fd_sc_hd__clkbuf_16
*CAP
1 *137:CLK 7.89966e-05
2 *136:CLK 0.000501845
3 *135:CLK 0.000250734
4 *134:CLK 0.000220612
5 *143:X 0.000114388
6 *36:42 0.000720362
7 *36:12 0.000571659
8 *36:8 0.000354221
9 *135:CLK *112:A 1.31597e-05
10 *136:CLK *113:A 4.66108e-05
11 *136:CLK *114:C 8.23457e-05
12 *136:CLK *124:A2 0.000101597
13 *136:CLK *158:A 0.000102649
14 *136:CLK *48:48 9.0139e-05
15 *136:CLK *49:45 1.91597e-05
16 *137:CLK *124:A1 2.20014e-05
17 *137:CLK *124:B1 6.07755e-05
18 *36:8 *39:22 2.40969e-05
19 *36:12 *39:22 5.59879e-06
20 *36:42 *124:A1 0.000256535
21 *36:42 *155:A 0.000233581
22 *36:42 *158:A 4.77719e-05
23 *36:42 *39:22 4.21579e-05
24 *134:D *134:CLK 3.61993e-05
25 *134:RESET_B *136:CLK 6.86109e-05
26 *135:D *135:CLK 0.000169946
27 *135:D *36:8 1.21256e-05
28 *135:D *36:12 9.23635e-05
29 *137:D *137:CLK 6.69608e-06
30 *143:A *136:CLK 6.73178e-06
31 *152:A *136:CLK 1.7635e-05
32 *152:A *137:CLK 8.7526e-05
*RES
1 *143:X *36:8 5.49 
2 *36:8 *36:12 1.575 
3 *36:12 *134:CLK 6.84 
4 *36:12 *135:CLK 7.5 
5 *36:8 *36:42 5.9 
6 *36:42 *136:CLK 10.1474 
7 *36:42 *137:CLK 3.445 
*END

*D_NET *37 0.00492268
*CONN
*I *138:CLK I *D sky130_fd_sc_hd__dfrtp_1
*I *140:CLK I *D sky130_fd_sc_hd__dfrtp_1
*I *139:CLK I *D sky130_fd_sc_hd__dfrtp_1
*I *141:CLK I *D sky130_fd_sc_hd__dfrtp_1
*I *144:X O *D sky130_fd_sc_hd__clkbuf_16
*CAP
1 *138:CLK 5.35317e-05
2 *140:CLK 0.000654158
3 *139:CLK 0
4 *141:CLK 0.000392632
5 *144:X 0.000407386
6 *37:30 0.000759065
7 *37:14 0.000457392
8 *37:10 0.00052352
9 *138:CLK *117:B 4.7003e-05
10 *138:CLK *53:43 2.64607e-05
11 *140:CLK *146:A 3.62301e-05
12 *140:CLK *54:16 4.66108e-05
13 *141:CLK *132:A 0.000211723
14 *141:CLK *55:10 0.00026504
15 *37:10 *156:A 0.000331162
16 *37:30 *156:A 0.000157418
17 *37:30 *54:16 2.84864e-05
18 *139:D *141:CLK 5.83121e-06
19 *139:D *37:14 6.03315e-05
20 *140:D *140:CLK 4.92695e-05
21 *141:D *141:CLK 5.38791e-05
22 *30:36 *138:CLK 1.83267e-05
23 *30:36 *140:CLK 4.41506e-05
24 *30:36 *141:CLK 2.44338e-05
25 *30:36 *37:10 3.5954e-05
26 *30:36 *37:30 6.38108e-05
27 *30:57 *138:CLK 0.000105661
28 *31:10 *140:CLK 6.32176e-05
*RES
1 *144:X *37:10 9.135 
2 *37:10 *37:14 3.14 
3 *37:14 *141:CLK 9.985 
4 *37:14 *139:CLK 1.6 
5 *37:10 *37:30 3.89 
6 *37:30 *140:CLK 10.39 
7 *37:30 *138:CLK 3.085 
*END

*D_NET *38 0.0103325
*CONN
*I *128:A I *D sky130_fd_sc_hd__inv_2
*I *130:A I *D sky130_fd_sc_hd__inv_2
*I *131:A I *D sky130_fd_sc_hd__inv_2
*I *129:A I *D sky130_fd_sc_hd__inv_2
*I *127:A I *D sky130_fd_sc_hd__inv_2
*I *133:A I *D sky130_fd_sc_hd__inv_2
*I *132:A I *D sky130_fd_sc_hd__inv_2
*I *126:A I *D sky130_fd_sc_hd__inv_2
*I *154:X O *D sky130_fd_sc_hd__clkbuf_4
*CAP
1 *128:A 8.71023e-05
2 *130:A 0.00054252
3 *131:A 0
4 *129:A 0
5 *127:A 0
6 *133:A 0.000249309
7 *132:A 0.000233925
8 *126:A 7.44445e-05
9 *154:X 0.000134542
10 *38:107 0.000752781
11 *38:61 0.00113679
12 *38:53 0.00105014
13 *38:35 0.000558766
14 *38:31 0.000424916
15 *38:29 0.000530519
16 *38:8 0.000599927
17 *130:A *159:A 8.64488e-05
18 *133:A *161:A 3.37876e-05
19 *38:8 *113:B 3.13354e-05
20 *38:8 *50:16 9.00196e-05
21 *38:29 *125:B 5.0096e-05
22 *38:29 *150:A 9.63764e-05
23 *38:29 *50:10 1.17738e-05
24 *38:29 *50:14 1.08129e-05
25 *38:29 *51:10 0.000189819
26 *38:31 *125:B 4.66108e-05
27 *38:35 *115:A1 0.000111397
28 *38:53 *115:A1 0.000117583
29 *38:53 *48:48 0.000112038
30 *38:53 *49:45 2.14495e-05
31 *38:61 *123:B 0.000417648
32 *38:61 *145:A 0.000280122
33 *38:61 *155:A 7.41855e-05
34 *38:61 *48:8 5.46689e-05
35 *38:61 *48:48 3.5582e-05
36 *38:107 *125:B 0.000330956
37 count[2] *126:A 4.89295e-05
38 count[4] *130:A 0.000301741
39 *115:A2 *38:53 2.83649e-05
40 *115:B1_N *38:53 4.10367e-05
41 *125:A *128:A 3.96099e-05
42 *125:A *38:31 8.34281e-06
43 *125:A *38:35 0.000129177
44 *134:RESET_B *126:A 4.57877e-05
45 *134:RESET_B *38:8 4.77769e-05
46 *134:RESET_B *38:29 0.000140895
47 *134:RESET_B *38:61 4.20634e-05
48 *135:RESET_B *38:53 1.49348e-05
49 *137:D *38:53 7.64159e-05
50 *138:RESET_B *130:A 4.63425e-05
51 *141:CLK *132:A 0.000211723
52 *141:RESET_B *133:A 0.000326354
53 *142:A *130:A 0
54 *30:12 *38:53 0.000109198
55 *30:24 *38:53 4.66108e-05
56 *30:36 *132:A 4.8854e-05
*RES
1 *154:X *38:8 4.135 
2 *38:8 *126:A 3.355 
3 *38:8 *38:29 11.395 
4 *38:29 *38:31 0.795 
5 *38:31 *38:35 3.57 
6 *38:35 *38:53 11.68 
7 *38:53 *38:61 14.09 
8 *38:61 *132:A 7.53 
9 *38:61 *133:A 8.85 
10 *38:53 *127:A 1.6 
11 *38:35 *129:A 1.6 
12 *38:31 *38:107 8.485 
13 *38:107 *131:A 1.6 
14 *38:107 *130:A 15.335 
15 *38:29 *128:A 3.1 
*END

*D_NET *39 0.00282787
*CONN
*I *112:A I *D sky130_fd_sc_hd__inv_2
*I *124:A1 I *D sky130_fd_sc_hd__a21oi_1
*I *123:A I *D sky130_fd_sc_hd__xor2_1
*I *145:X O *D sky130_fd_sc_hd__buf_1
*CAP
1 *112:A 9.5326e-05
2 *124:A1 0.00015601
3 *123:A 0
4 *145:X 0.000297184
5 *39:22 0.000549839
6 *39:10 0.000786338
7 *124:A1 *123:B 4.77719e-05
8 *124:A1 *124:B1 3.08692e-05
9 *124:A1 *158:A 4.89295e-05
10 *39:10 *123:B 3.64998e-06
11 *39:22 *155:A 1.4174e-05
12 count[3] *124:A1 4.1453e-05
13 count[3] *39:22 6.98693e-05
14 *135:CLK *112:A 1.31597e-05
15 *135:D *39:22 0.000322901
16 *137:CLK *124:A1 2.20014e-05
17 *36:8 *39:22 2.40969e-05
18 *36:12 *39:22 5.59879e-06
19 *36:42 *124:A1 0.000256535
20 *36:42 *39:22 4.21579e-05
*RES
1 *145:X *39:10 6.99 
2 *39:10 *39:22 9.605 
3 *39:22 *123:A 1.6 
4 *39:22 *124:A1 5.98 
5 *39:10 *112:A 5.115 
*END

*D_NET *40 0.000333384
*CONN
*I *122:A I *D sky130_fd_sc_hd__xor2_1
*I *146:X O *D sky130_fd_sc_hd__dlygate4sd3_1
*CAP
1 *122:A 0.000166692
2 *146:X 0.000166692
*RES
1 *146:X *122:A 9.375 
*END

*D_NET *41 0.00123946
*CONN
*I *120:A I *D sky130_fd_sc_hd__xor2_1
*I *147:X O *D sky130_fd_sc_hd__dlygate4sd3_1
*CAP
1 *120:A 0.000163912
2 *147:X 0.000163912
3 *120:A *161:A 0.000160314
4 *120:A *54:18 0.000195439
5 *120:B *120:A 0.000359135
6 *122:B *120:A 0.000196744
*RES
1 *147:X *120:A 8.945 
*END

*D_NET *42 0.000684381
*CONN
*I *116:A I *D sky130_fd_sc_hd__xor2_1
*I *118:A1 I *D sky130_fd_sc_hd__a21oi_1
*I *148:X O *D sky130_fd_sc_hd__dlygate4sd3_1
*CAP
1 *116:A 0
2 *118:A1 0.000134306
3 *148:X 0.000111172
4 *42:6 0.000245478
5 *116:B *118:A1 2.02052e-05
6 *118:A2 *118:A1 0.00016524
7 *30:57 *118:A1 7.98007e-06
*RES
1 *148:X *42:6 3.085 
2 *42:6 *118:A1 8.81 
3 *42:6 *116:A 1.6 
*END

*D_NET *43 0.00137604
*CONN
*I *123:B I *D sky130_fd_sc_hd__xor2_1
*I *149:X O *D sky130_fd_sc_hd__dlygate4sd3_1
*CAP
1 *123:B 0.000423615
2 *149:X 0.000423615
3 *123:B *155:A 3.10438e-05
4 count[3] *123:B 2.86975e-05
5 *124:A1 *123:B 4.77719e-05
6 *38:61 *123:B 0.000417648
7 *39:10 *123:B 3.64998e-06
*RES
1 *149:X *123:B 15.27 
*END

*D_NET *44 0.000599413
*CONN
*I *115:A1 I *D sky130_fd_sc_hd__o21ba_1
*I *150:X O *D sky130_fd_sc_hd__dlygate4sd3_1
*CAP
1 *115:A1 5.44187e-05
2 *150:X 5.44187e-05
3 *115:A2 *115:A1 0.000214984
4 *125:A *115:A1 4.66108e-05
5 *38:35 *115:A1 0.000111397
6 *38:53 *115:A1 0.000117583
*RES
1 *150:X *115:A1 5.735 
*END

*D_NET *45 0.00180656
*CONN
*I *124:B1 I *D sky130_fd_sc_hd__a21oi_1
*I *151:X O *D sky130_fd_sc_hd__dlygate4sd3_1
*CAP
1 *124:B1 0.000737523
2 *151:X 0.000737523
3 *124:B1 *151:A 2.49909e-05
4 *124:B1 *160:A 0.000110802
5 *124:A1 *124:B1 3.08692e-05
6 *137:CLK *124:B1 6.07755e-05
7 *137:D *124:B1 9.02878e-05
8 *137:RESET_B *124:B1 1.11872e-05
9 *152:A *124:B1 2.59934e-06
*RES
1 *151:X *124:B1 12.575 
*END

*D_NET *46 0.00111623
*CONN
*I *125:B I *D sky130_fd_sc_hd__nor2_1
*I *152:X O *D sky130_fd_sc_hd__dlygate4sd3_1
*CAP
1 *125:B 0.000330859
2 *152:X 0.000330859
3 *125:A *125:B 2.68526e-05
4 *38:29 *125:B 5.0096e-05
5 *38:31 *125:B 4.66108e-05
6 *38:107 *125:B 0.000330956
*RES
1 *152:X *125:B 13.5 
*END

*D_NET *47 0.00120364
*CONN
*I *118:B1 I *D sky130_fd_sc_hd__a21oi_1
*I *153:X O *D sky130_fd_sc_hd__dlygate4sd3_1
*CAP
1 *118:B1 0.000448289
2 *153:X 0.000448289
3 *118:B1 *148:A 0.000114649
4 *118:B1 *159:A 0.000181
5 *119:B *118:B1 1.14169e-05
*RES
1 *153:X *118:B1 15.435 
*END

*D_NET *48 0.00483977
*CONN
*I *113:A I *D sky130_fd_sc_hd__and3_1
*I *114:A I *D sky130_fd_sc_hd__and4_1
*I *145:A I *D sky130_fd_sc_hd__buf_1
*I *155:A I *D sky130_fd_sc_hd__clkbuf_4
*I *134:Q O *D sky130_fd_sc_hd__dfrtp_1
*CAP
1 *113:A 0.000454095
2 *114:A 0
3 *145:A 0.000175409
4 *155:A 0.000388327
5 *134:Q 0
6 *48:48 0.000698448
7 *48:8 0.000656889
8 *48:4 0.000337506
9 *113:A *113:B 0.000119866
10 *113:A *113:C 2.30705e-05
11 *113:A *114:B 3.57349e-05
12 *113:A *114:C 4.40028e-05
13 *113:A *160:A 7.35842e-05
14 *113:A *50:16 6.03268e-05
15 *113:A *51:20 2.65086e-05
16 *48:8 *158:A 4.77757e-05
17 *48:48 *114:B 8.35068e-05
18 *48:48 *114:C 2.20014e-05
19 *48:48 *158:A 0.000240061
20 *48:48 *51:20 2.98477e-06
21 count[3] *155:A 5.67938e-05
22 *123:B *155:A 3.10438e-05
23 *134:RESET_B *155:A 3.06743e-05
24 *134:RESET_B *48:8 2.34984e-05
25 *136:CLK *113:A 4.66108e-05
26 *136:CLK *48:48 9.0139e-05
27 *136:D *113:A 5.83121e-06
28 *137:D *48:48 1.3155e-05
29 *137:RESET_B *113:A 9.03081e-05
30 *152:A *48:48 0
31 *29:12 *113:A 0.000157264
32 *36:42 *155:A 0.000233581
33 *38:53 *48:48 0.000112038
34 *38:61 *145:A 0.000280122
35 *38:61 *155:A 7.41855e-05
36 *38:61 *48:8 5.46689e-05
37 *38:61 *48:48 3.5582e-05
38 *39:22 *155:A 1.4174e-05
*RES
1 *134:Q *48:4 1.6 
2 *48:4 *48:8 3.83 
3 *48:8 *155:A 9.945 
4 *48:8 *145:A 7.635 
5 *48:4 *48:48 9.34 
6 *48:48 *114:A 1.6 
7 *48:48 *113:A 14.27 
*END

*D_NET *49 0.00679691
*CONN
*I *156:A I *D sky130_fd_sc_hd__clkbuf_4
*I *149:A I *D sky130_fd_sc_hd__dlygate4sd3_1
*I *113:B I *D sky130_fd_sc_hd__and3_1
*I *114:B I *D sky130_fd_sc_hd__and4_1
*I *124:A2 I *D sky130_fd_sc_hd__a21oi_1
*I *135:Q O *D sky130_fd_sc_hd__dfrtp_1
*CAP
1 *156:A 0.00062989
2 *149:A 0
3 *113:B 0.000422771
4 *114:B 8.97458e-05
5 *124:A2 0.000192146
6 *135:Q 4.54623e-05
7 *49:73 0.000703649
8 *49:45 0.000882055
9 *49:14 0.000644717
10 *49:10 0.000202255
11 *113:B *114:C 6.69608e-06
12 *113:B *50:10 0
13 *113:B *50:16 0.00011398
14 *124:A2 *158:A 5.54998e-05
15 *156:A *121:A 9.05535e-05
16 *156:A *121:B 5.75586e-05
17 *156:A *54:16 0.000154914
18 *49:45 *114:C 0.000152349
19 *49:45 *160:A 8.07237e-05
20 *49:45 *51:20 0.000119866
21 *113:A *113:B 0.000119866
22 *113:A *114:B 3.57349e-05
23 *115:B1_N *49:45 2.10214e-05
24 *135:RESET_B *124:A2 7.01303e-05
25 *135:RESET_B *49:14 9.40234e-05
26 *136:CLK *124:A2 0.000101597
27 *136:CLK *49:45 1.91597e-05
28 *136:D *113:B 3.59784e-05
29 *137:D *124:A2 0.000103588
30 *137:D *49:45 8.41307e-05
31 *144:A *156:A 1.08758e-05
32 *152:A *49:45 9.93725e-05
33 *154:A *113:B 5.43444e-05
34 *29:12 *113:B 0.00032123
35 *30:12 *49:45 2.12738e-05
36 *30:24 *156:A 0.000107939
37 *30:24 *49:10 1.9872e-05
38 *30:24 *49:14 0.000106024
39 *30:24 *49:45 5.74791e-05
40 *30:24 *49:73 4.35709e-05
41 *37:10 *156:A 0.000331162
42 *37:30 *156:A 0.000157418
43 *38:8 *113:B 3.13354e-05
44 *38:53 *49:45 2.14495e-05
45 *48:48 *114:B 8.35068e-05
*RES
1 *135:Q *49:10 4.2825 
2 *49:10 *49:14 2.3025 
3 *49:14 *124:A2 7.575 
4 *49:14 *49:45 16.255 
5 *49:45 *114:B 2.74 
6 *49:45 *113:B 13.235 
7 *49:10 *49:73 1.5075 
8 *49:73 *149:A 3.6 
9 *49:73 *156:A 21.19 
*END

*D_NET *50 0.00365054
*CONN
*I *151:A I *D sky130_fd_sc_hd__dlygate4sd3_1
*I *157:A I *D sky130_fd_sc_hd__clkbuf_4
*I *113:C I *D sky130_fd_sc_hd__and3_1
*I *114:C I *D sky130_fd_sc_hd__and4_1
*I *136:Q O *D sky130_fd_sc_hd__dfrtp_1
*CAP
1 *151:A 0.000180175
2 *157:A 0
3 *113:C 2.11374e-05
4 *114:C 0.000340548
5 *136:Q 0.000331136
6 *50:16 0.000525328
7 *50:14 0.000270193
8 *50:10 0.000617861
9 *114:C *114:D 3.116e-05
10 *114:C *160:A 0.000156986
11 *114:C *51:20 2.20014e-05
12 *151:A *51:10 1.56428e-05
13 *50:10 *51:10 6.88421e-05
14 *50:10 *51:20 9.60582e-07
15 *113:A *113:C 2.30705e-05
16 *113:A *114:C 4.40028e-05
17 *113:A *50:16 6.03268e-05
18 *113:B *114:C 6.69608e-06
19 *113:B *50:10 0
20 *113:B *50:16 0.00011398
21 *124:B1 *151:A 2.49909e-05
22 *134:RESET_B *50:10 3.91191e-05
23 *134:RESET_B *50:14 0.00011083
24 *136:CLK *114:C 8.23457e-05
25 *136:RESET_B *50:10 9.13537e-05
26 *137:D *114:C 0
27 *152:A *114:C 0.000129376
28 *154:A *50:14 5.55251e-05
29 *38:8 *50:16 9.00196e-05
30 *38:29 *50:10 1.17738e-05
31 *38:29 *50:14 1.08129e-05
32 *48:48 *114:C 2.20014e-05
33 *49:45 *114:C 0.000152349
*RES
1 *136:Q *50:10 8.1 
2 *50:10 *50:14 4.145 
3 *50:14 *50:16 3.555 
4 *50:16 *114:C 13.235 
5 *50:16 *113:C 2.125 
6 *50:14 *157:A 1.6 
7 *50:10 *151:A 6.12 
*END

*D_NET *51 0.00339119
*CONN
*I *150:A I *D sky130_fd_sc_hd__dlygate4sd3_1
*I *114:D I *D sky130_fd_sc_hd__and4_1
*I *158:A I *D sky130_fd_sc_hd__clkbuf_4
*I *137:Q O *D sky130_fd_sc_hd__dfrtp_1
*CAP
1 *150:A 6.05009e-05
2 *114:D 2.90572e-05
3 *158:A 0.000256739
4 *137:Q 0.000119786
5 *51:20 0.000815492
6 *51:10 0.000709983
7 *113:A *51:20 2.65086e-05
8 *114:C *114:D 3.116e-05
9 *114:C *51:20 2.20014e-05
10 *124:A1 *158:A 4.89295e-05
11 *124:A2 *158:A 5.54998e-05
12 *134:RESET_B *158:A 0.000120141
13 *136:CLK *158:A 0.000102649
14 *136:D *51:20 0.000114865
15 *151:A *51:10 1.56428e-05
16 *29:12 *51:10 0
17 *30:12 *158:A 4.77757e-05
18 *36:42 *158:A 4.77719e-05
19 *38:29 *150:A 9.63764e-05
20 *38:29 *51:10 0.000189819
21 *48:8 *158:A 4.77757e-05
22 *48:48 *158:A 0.000240061
23 *48:48 *51:20 2.98477e-06
24 *49:45 *51:20 0.000119866
25 *50:10 *51:10 6.88421e-05
26 *50:10 *51:20 9.60582e-07
*RES
1 *137:Q *51:10 6.3225 
2 *51:10 *51:20 8.6675 
3 *51:20 *158:A 11.315 
4 *51:20 *114:D 2.215 
5 *51:10 *150:A 4.8525 
*END

*D_NET *52 0.00377049
*CONN
*I *148:A I *D sky130_fd_sc_hd__dlygate4sd3_1
*I *159:A I *D sky130_fd_sc_hd__clkbuf_4
*I *117:A I *D sky130_fd_sc_hd__and3_1
*I *121:A I *D sky130_fd_sc_hd__and4_1
*I *138:Q O *D sky130_fd_sc_hd__dfrtp_1
*CAP
1 *148:A 9.70339e-05
2 *159:A 0.000276229
3 *117:A 1.67293e-05
4 *121:A 0.000134512
5 *138:Q 0.000162362
6 *52:10 0.000553716
7 *52:8 0.000759037
8 *52:6 0.00033973
9 *121:A *121:B 0.000335982
10 *121:A *147:A 7.14699e-05
11 *121:A *54:18 0.000196669
12 *52:10 *53:43 1.27464e-05
13 *118:B1 *148:A 0.000114649
14 *118:B1 *159:A 0.000181
15 *130:A *159:A 8.64488e-05
16 *138:RESET_B *52:6 7.9576e-05
17 *139:RESET_B *159:A 0.000112589
18 *156:A *121:A 9.05535e-05
19 *30:57 *117:A 1.8279e-05
20 *30:57 *121:A 3.15672e-05
21 *30:57 *52:10 9.96098e-05
*RES
1 *138:Q *52:6 3.43 
2 *52:6 *52:8 0.795 
3 *52:8 *52:10 4.59 
4 *52:10 *121:A 9.695 
5 *52:10 *117:A 1.96 
6 *52:8 *159:A 11.495 
7 *52:6 *148:A 7.43 
*END

*D_NET *53 0.00582162
*CONN
*I *153:A I *D sky130_fd_sc_hd__dlygate4sd3_1
*I *121:B I *D sky130_fd_sc_hd__and4_1
*I *117:B I *D sky130_fd_sc_hd__and3_1
*I *160:A I *D sky130_fd_sc_hd__clkbuf_4
*I *139:Q O *D sky130_fd_sc_hd__dfrtp_1
*CAP
1 *153:A 0.000268734
2 *121:B 0.000412566
3 *117:B 6.49153e-05
4 *160:A 0.000951893
5 *139:Q 0
6 *53:43 0.000815533
7 *53:8 0.00147773
8 *53:4 0.000456517
9 *121:B *147:A 1.91597e-05
10 *121:B *54:18 4.11718e-05
11 *113:A *160:A 7.35842e-05
12 *114:C *160:A 0.000156986
13 *121:A *121:B 0.000335982
14 *124:B1 *160:A 0.000110802
15 *134:RESET_B *160:A 4.03314e-05
16 *136:D *160:A 5.2052e-05
17 *137:RESET_B *160:A 1.93348e-05
18 *138:CLK *117:B 4.7003e-05
19 *138:CLK *53:43 2.64607e-05
20 *139:RESET_B *153:A 5.83121e-06
21 *139:RESET_B *53:8 8.81868e-05
22 *143:A *160:A 0
23 *152:A *160:A 3.30017e-05
24 *156:A *121:B 5.75586e-05
25 *29:12 *160:A 0.000122108
26 *30:57 *121:B 2.92538e-05
27 *30:57 *53:43 2.14569e-05
28 *49:45 *160:A 8.07237e-05
29 *52:10 *53:43 1.27464e-05
*RES
1 *139:Q *53:4 1.6 
2 *53:4 *53:8 4.175 
3 *53:8 *160:A 23.2543 
4 *53:8 *53:43 6.77 
5 *53:43 *117:B 2.395 
6 *53:43 *121:B 11.3 
7 *53:4 *153:A 4.735 
*END

*D_NET *54 0.00272192
*CONN
*I *147:A I *D sky130_fd_sc_hd__dlygate4sd3_1
*I *121:C I *D sky130_fd_sc_hd__and4_1
*I *161:A I *D sky130_fd_sc_hd__clkbuf_4
*I *140:Q O *D sky130_fd_sc_hd__dfrtp_1
*CAP
1 *147:A 5.93559e-05
2 *121:C 0
3 *161:A 0.000394508
4 *140:Q 0.000163189
5 *54:18 0.000487671
6 *54:16 0.000315708
7 *161:A *162:A 0.000197826
8 count[7] *161:A 1.42598e-05
9 *120:A *161:A 0.000160314
10 *120:A *54:18 0.000195439
11 *121:A *147:A 7.14699e-05
12 *121:A *54:18 0.000196669
13 *121:B *147:A 1.91597e-05
14 *121:B *54:18 4.11718e-05
15 *121:D *161:A 2.68464e-05
16 *122:B *161:A 4.89295e-05
17 *133:A *161:A 3.37876e-05
18 *140:CLK *54:16 4.66108e-05
19 *156:A *54:16 0.000154914
20 *30:36 *54:16 6.56036e-05
21 *37:30 *54:16 2.84864e-05
*RES
1 *140:Q *54:16 9.005 
2 *54:16 *54:18 2.865 
3 *54:18 *161:A 13.01 
4 *54:18 *121:C 1.6 
5 *54:16 *147:A 2.74 
*END

*D_NET *55 0.00247371
*CONN
*I *162:A I *D sky130_fd_sc_hd__clkbuf_4
*I *146:A I *D sky130_fd_sc_hd__dlygate4sd3_1
*I *141:Q O *D sky130_fd_sc_hd__dfrtp_1
*CAP
1 *162:A 0.000394787
2 *146:A 0.000112724
3 *141:Q 0.000364209
4 *55:10 0.00087172
5 count[6] *162:A 0
6 count[7] *162:A 4.8854e-05
7 *140:CLK *146:A 3.62301e-05
8 *140:D *162:A 9.23635e-05
9 *141:CLK *55:10 0.00026504
10 *141:D *146:A 1.84465e-05
11 *141:D *162:A 4.552e-05
12 *141:D *55:10 2.59925e-05
13 *161:A *162:A 0.000197826
*RES
1 *141:Q *55:10 8.5875 
2 *55:10 *146:A 5.3475 
3 *55:10 *162:A 10.5075 
*END
